n = 20;
allowed = [
    {2, 4, 5, 9, 10, 12, 13, 17, 18, 20},
    {1, 4, 5, 9, 10, 12, 15, 17, 18, 20},
    {5, 6, 7, 8, 11, 12, 13, 14, 19, 20},
    {1, 2, 5, 9, 10, 14, 15, 16, 17, 18, 20},
    {1, 2, 3, 8, 10, 11, 12, 13, 17, 20},
    {7, 8, 9, 10, 11, 12, 13, 14, 15, 16, 19},
    {6, 8, 9, 10, 11, 12, 14, 15, 16, 19},
    {3, 5, 6, 7, 11, 12, 13, 14, 19, 20},
    {1, 2, 7, 10, 12, 14, 15, 16, 17, 18},
    {1, 2, 7, 9, 12, 14, 15, 16, 17, 18},
    {3, 5, 6, 7, 8, 12, 13, 14, 19, 20},
    {2, 6, 7, 8, 9, 10, 14, 15, 16, 17},
    {1, 2, 3, 5, 7, 8, 11, 14, 19, 20},
    {3, 6, 7, 8, 9, 10, 11, 12, 15, 19},
    {2, 6, 7, 9, 10, 12, 14, 16, 17, 18},
    {2, 6, 7, 9, 10, 12, 14, 15, 17, 18},
    {1, 2, 4, 7, 9, 10, 12, 15, 16, 18},
    {1, 2, 4, 7, 9, 10, 12, 15, 16, 17},
    {2, 3, 5, 6, 7, 8, 11, 12, 13, 14},
    {1, 2, 3, 4, 5, 8, 10, 11, 13, 17}
];
