n = 100;
allowed = [
    {7, 12, 20, 23, 30, 59, 73, 83, 88, 99},
    {7, 13, 24, 25, 39, 47, 63, 78, 97, 99},
    {8, 9, 18, 28, 32, 33, 46, 51, 68, 81},
    {22, 36, 50, 54, 55, 56, 86, 87, 89, 96},
    {6, 29, 41, 44, 45, 53, 61, 66, 74, 95},
    {14, 16, 29, 44, 52, 61, 67, 72, 94, 95},
    {1, 2, 20, 24, 30, 39, 59, 73, 97, 99},
    {3, 9, 18, 28, 32, 33, 46, 51, 68, 81},
    {3, 8, 19, 28, 32, 33, 42, 46, 51, 68, 81},
    {1, 12, 23, 35, 48, 49, 65, 82, 83, 88},
    {28, 32, 37, 40, 60, 62, 64, 68, 69, 100},
    {1, 7, 10, 20, 23, 35, 59, 73, 83, 88},
    {2, 24, 25, 39, 42, 47, 63, 76, 78, 97},
    {15, 16, 31, 35, 48, 49, 52, 65, 90, 95},
    {14, 16, 18, 31, 35, 39, 48, 49, 52, 65, 90},
    {6, 14, 15, 21, 29, 31, 49, 52, 65, 95},
    {19, 27, 58, 74, 77, 79, 84, 91, 92, 93},
    {3, 8, 9, 11, 28, 32, 38, 40, 46, 51, 68},
    {17, 22, 27, 58, 66, 74, 84, 89, 91, 93},
    {1, 7, 12, 23, 30, 59, 73, 83, 88, 99},
    {14, 16, 27, 29, 31, 35, 49, 65, 70, 77, 95},
    {4, 36, 41, 53, 55, 75, 86, 87, 89, 96},
    {1, 7, 10, 12, 20, 35, 48, 65, 83, 88},
    {2, 7, 13, 20, 25, 30, 39, 63, 97, 99},
    {2, 7, 13, 24, 39, 47, 63, 78, 97, 99},
    {10, 21, 38, 70, 77, 79, 80, 82, 85, 91},
    {17, 19, 41, 58, 66, 74, 77, 84, 91, 93},
    {3, 8, 18, 32, 40, 46, 51, 68, 81, 100},
    {5, 6, 16, 44, 52, 61, 66, 72, 94, 95},
    {1, 2, 7, 20, 24, 39, 59, 73, 97, 99},
    {14, 15, 16, 21, 35, 48, 49, 52, 65, 95},
    {3, 8, 28, 34, 37, 43, 68, 81, 98, 100},
    {3, 8, 9, 32, 42, 43, 47, 51, 68, 81},
    {42, 43, 44, 67, 72, 76, 81, 94, 98, 100},
    {7, 10, 14, 15, 23, 48, 49, 65, 83, 88},
    {4, 22, 50, 54, 55, 56, 86, 87, 89, 96},
    {11, 32, 40, 60, 62, 64, 67, 68, 69, 100},
    {10, 21, 26, 49, 70, 80, 82, 83, 85, 88},
    {2, 7, 15, 20, 24, 25, 48, 90, 97, 99},
    {11, 18, 28, 37, 46, 60, 62, 64, 68, 69},
    {22, 53, 55, 66, 74, 75, 86, 87, 89, 96},
    {33, 34, 43, 47, 63, 76, 81, 94, 98, 100},
    {32, 34, 42, 47, 72, 75, 76, 81, 94, 98, 100},
    {6, 29, 34, 52, 61, 67, 72, 94, 95, 98},
    {5, 41, 44, 53, 61, 62, 64, 67, 75, 86},
    {3, 8, 9, 18, 28, 32, 40, 51, 68, 81},
    {2, 13, 25, 34, 42, 43, 63, 76, 78, 98},
    {7, 10, 14, 15, 23, 35, 39, 65, 83, 88},
    {14, 15, 16, 21, 31, 35, 48, 52, 65, 95},
    {4, 22, 36, 54, 55, 56, 86, 87, 89, 96},
    {3, 8, 9, 18, 28, 32, 33, 46, 68, 81},
    {6, 14, 15, 16, 29, 65, 72, 90, 94, 95},
    {5, 22, 41, 45, 66, 74, 75, 86, 89, 96},
    {4, 22, 36, 50, 55, 56, 75, 87, 89, 96},
    {4, 22, 36, 41, 53, 75, 86, 87, 89, 96},
    {4, 22, 36, 50, 54, 55, 71, 75, 87, 96},
    {17, 50, 58, 70, 77, 79, 80, 84, 91, 92, 93},
    {17, 19, 27, 57, 74, 79, 84, 91, 92, 93},
    {1, 7, 12, 20, 23, 30, 73, 83, 88, 99},
    {11, 28, 37, 40, 45, 62, 64, 68, 69, 71},
    {5, 6, 10, 16, 29, 44, 53, 66, 74, 77, 95},
    {11, 37, 40, 45, 60, 64, 67, 69, 71, 75},
    {2, 13, 24, 25, 42, 47, 76, 78, 90, 97},
    {11, 26, 37, 40, 45, 60, 62, 67, 68, 69, 71},
    {14, 15, 16, 21, 23, 31, 35, 48, 49, 52},
    {5, 27, 41, 53, 61, 74, 77, 84, 86, 93},
    {6, 34, 43, 44, 72, 81, 94, 95, 98, 100},
    {3, 8, 11, 18, 28, 32, 37, 46, 81, 100},
    {11, 37, 40, 45, 60, 62, 64, 68, 71, 100},
    {17, 21, 31, 49, 74, 77, 79, 91, 92, 93},
    {11, 37, 45, 56, 60, 62, 64, 69, 75, 87},
    {6, 34, 43, 44, 52, 67, 76, 94, 95, 98},
    {1, 7, 12, 20, 24, 30, 39, 59, 97, 99},
    {5, 17, 27, 41, 53, 61, 66, 77, 84, 93},
    {22, 36, 41, 45, 53, 55, 86, 87, 89, 96},
    {34, 42, 43, 47, 52, 63, 72, 90, 94, 98},
    {17, 21, 27, 66, 70, 74, 79, 84, 91, 93},
    {2, 13, 24, 25, 42, 47, 63, 76, 97, 99},
    {17, 57, 58, 70, 77, 80, 84, 91, 92, 93},
    {26, 38, 57, 70, 77, 79, 82, 85, 91, 92},
    {3, 8, 28, 32, 34, 42, 43, 68, 98, 100},
    {10, 21, 23, 26, 35, 38, 48, 83, 85, 88},
    {1, 10, 12, 20, 23, 35, 48, 59, 82, 88},
    {17, 19, 27, 41, 58, 66, 74, 77, 91, 93},
    {10, 21, 26, 35, 38, 49, 70, 82, 83, 88},
    {22, 36, 41, 53, 55, 61, 66, 75, 87, 89, 96},
    {4, 22, 36, 41, 55, 56, 75, 86, 89, 96},
    {1, 10, 12, 20, 23, 35, 48, 59, 82, 83},
    {4, 22, 36, 41, 53, 55, 75, 86, 87, 96},
    {2, 14, 15, 34, 39, 52, 63, 65, 76, 98},
    {17, 27, 57, 58, 70, 77, 79, 84, 92, 93},
    {17, 19, 57, 58, 70, 77, 79, 84, 91, 93},
    {17, 27, 66, 70, 74, 77, 79, 84, 91, 92},
    {6, 34, 43, 44, 52, 67, 72, 95, 98, 100},
    {5, 6, 16, 29, 31, 44, 52, 61, 72, 94},
    {4, 22, 36, 41, 53, 55, 75, 86, 87, 89},
    {2, 7, 13, 24, 25, 30, 39, 63, 78, 99},
    {34, 42, 43, 44, 67, 72, 76, 81, 94, 100},
    {2, 7, 20, 24, 25, 30, 39, 59, 73, 97},
    {28, 32, 34, 43, 67, 68, 72, 81, 94, 98}
];
