n = 50;
allowed = [
    {10, 26, 41, 46, 48},
    {4, 5, 27, 34, 49},
    {8, 11, 13, 27, 35, 42},
    {2, 14, 27, 28, 45},
    {1, 2, 26, 31, 41},
    {12, 17, 23, 29, 50},
    {4, 14, 16, 25, 28},
    {11, 23, 30, 36, 42, 44},
    {5, 31, 34, 39, 42, 47},
    {1, 24, 36, 41, 48},
    {8, 24, 35, 42, 48},
    {6, 29, 32, 38, 43},
    {3, 8, 20, 35, 42},
    {2, 4, 27, 28, 45},
    {9, 21, 26, 33, 39, 40},
    {7, 25, 30, 36, 44},
    {6, 20, 23, 29, 50},
    {32, 37, 43, 46, 47},
    {22, 27, 34, 45, 49},
    {11, 17, 23, 35, 50},
    {9, 15, 33, 39, 40},
    {14, 19, 34, 38, 45, 49},
    {11, 17, 20, 35, 50},
    {1, 10, 11, 36, 48},
    {4, 7, 16, 27, 28},
    {1, 5, 10, 13, 41, 46},
    {2, 4, 14, 45, 49},
    {4, 14, 25, 27, 45},
    {6, 12, 17, 32, 38},
    {8, 16, 36, 42, 44},
    {5, 9, 34, 39, 49},
    {12, 18, 29, 37, 43},
    {9, 15, 21, 22, 39},
    {2, 19, 22, 31, 49},
    {3, 11, 20, 23, 50},
    {8, 10, 24, 30, 44},
    {18, 39, 43, 46, 47},
    {12, 29, 32, 40, 43},
    {5, 9, 31, 37, 47},
    {15, 18, 21, 32, 37, 43},
    {1, 5, 10, 26, 46},
    {3, 8, 11, 36, 44},
    {18, 32, 37, 40, 47},
    {8, 16, 30, 36, 42},
    {2, 4, 14, 27, 49},
    {1, 26, 41, 47, 48},
    {5, 9, 37, 39, 46},
    {1, 10, 12, 24, 41, 46},
    {2, 19, 27, 31, 34},
    {6, 17, 20, 23, 33, 35}
];
