n = 50;
allowed = [
    {6, 34, 38},
    {14, 18, 19},
    {37, 39, 46},
    {8, 20, 34},
    {6, 22, 27},
    {1, 5, 27},
    {16, 23, 33, 39},
    {13, 20, 24, 43},
    {13, 20, 21, 31},
    {9, 36, 49},
    {21, 26, 29},
    {2, 4, 18, 19},
    {8, 9, 31},
    {2, 18, 23},
    {24, 45, 48, 50},
    {7, 33, 39},
    {28, 33, 37, 40},
    {2, 14, 19},
    {2, 12, 18},
    {4, 8, 43},
    {11, 25, 26, 29},
    {5, 6, 32},
    {14, 44, 48},
    {41, 42, 45},
    {15, 17, 27, 30},
    {11, 21, 29},
    {5, 6, 30},
    {17, 37, 40},
    {11, 21, 32},
    {5, 27, 47},
    {9, 13, 20},
    {1, 21, 29},
    {7, 11, 16},
    {1, 4, 38},
    {7, 39, 49, 50},
    {4, 10, 20, 35},
    {3, 28, 46},
    {1, 29, 34, 40},
    {3, 7, 16},
    {17, 28, 33},
    {22, 24, 34, 42},
    {24, 34, 41},
    {8, 13, 20},
    {14, 23, 26, 31},
    {15, 24, 27},
    {3, 28, 37},
    {2, 22, 30, 49},
    {23, 28, 44},
    {10, 35, 36},
    {15, 24, 45}
];
