n = 100;
allowed = [
    {29, 48, 56},
    {18, 50, 61},
    {21, 26, 33, 47},
    {19, 22, 87},
    {86, 92, 98},
    {13, 21, 39},
    {54, 91, 99},
    {58, 78, 90},
    {16, 25, 60, 66},
    {28, 82, 83},
    {14, 24, 73},
    {17, 37, 70, 89},
    {6, 39, 100},
    {11, 73, 96},
    {47, 66, 70, 81},
    {9, 66, 81},
    {42, 89, 95},
    {2, 61, 95},
    {4, 87, 97},
    {29, 56, 80},
    {3, 6, 39},
    {4, 72, 87},
    {34, 67, 77},
    {10, 32, 52, 83},
    {9, 63, 75},
    {33, 68, 93},
    {63, 75, 79},
    {10, 13, 82, 83},
    {1, 48, 56},
    {23, 69, 77},
    {34, 67, 76},
    {24, 65, 83},
    {26, 68, 93},
    {23, 31, 67},
    {18, 43, 55, 61},
    {4, 22, 53, 87},
    {24, 32, 51, 65},
    {49, 68, 89},
    {6, 13, 21},
    {88, 96, 98},
    {8, 69, 90},
    {17, 94, 95},
    {16, 86, 88, 99},
    {28, 82, 88, 94},
    {23, 30, 77, 78},
    {57, 59, 71},
    {66, 76, 81},
    {1, 24, 29, 56},
    {19, 33, 68, 93},
    {2, 51, 64, 95},
    {2, 49, 50},
    {54, 74, 85},
    {8, 45, 58, 78},
    {7, 71, 91},
    {18, 35, 61},
    {1, 29, 48},
    {46, 59, 71},
    {8, 30, 34, 81},
    {46, 72, 78},
    {2, 36, 61, 84},
    {2, 18, 55},
    {52, 74, 84, 85},
    {27, 75, 79},
    {6, 13, 39, 98},
    {24, 32, 83},
    {15, 47, 81},
    {23, 30, 31, 34},
    {26, 33, 93},
    {30, 77, 90},
    {5, 12, 92},
    {46, 54, 99},
    {4, 22, 32, 59},
    {11, 14, 38, 96},
    {52, 57, 85},
    {25, 27, 63},
    {31, 34, 67},
    {23, 30, 69},
    {8, 53, 59},
    {27, 63, 68, 100},
    {20, 86, 92},
    {15, 47, 66},
    {10, 28, 83},
    {10, 28, 82},
    {2, 60, 61},
    {52, 62, 74},
    {5, 80, 92},
    {4, 19, 97},
    {40, 91, 98},
    {12, 17, 95},
    {8, 41, 69},
    {7, 54, 99, 100},
    {5, 70, 80},
    {33, 49, 68},
    {17, 42, 44},
    {2, 17, 18},
    {14, 40, 88},
    {4, 19, 87},
    {5, 40, 55, 88},
    {7, 54, 91},
    {13, 27, 79}
];
