n = 20;
allowed = [
    {3, 4, 5, 8, 9, 12, 13, 14, 17, 19, 20},
    {4, 6, 7, 10, 11, 12, 13, 14, 15, 16, 18},
    {1, 4, 5, 8, 9, 13, 14, 17, 19, 20},
    {3, 5, 6, 7, 9, 10, 12, 14, 16, 18},
    {3, 4, 7, 9, 10, 12, 13, 14, 19, 20},
    {2, 4, 5, 7, 10, 12, 14, 15, 16, 18},
    {2, 4, 5, 6, 10, 12, 14, 15, 16, 18},
    {1, 3, 5, 7, 9, 13, 14, 17, 19, 20},
    {1, 3, 4, 5, 6, 8, 14, 18, 19, 20},
    {2, 4, 5, 6, 7, 12, 14, 15, 16, 18},
    {2, 4, 6, 7, 10, 12, 14, 15, 16, 18},
    {2, 4, 5, 6, 7, 10, 14, 15, 16, 18},
    {1, 3, 5, 7, 8, 12, 14, 17, 19, 20},
    {3, 4, 5, 6, 7, 10, 12, 13, 18, 20},
    {2, 4, 6, 7, 10, 11, 12, 14, 16, 18},
    {2, 4, 6, 7, 10, 11, 12, 14, 15, 18},
    {1, 3, 5, 7, 8, 9, 13, 14, 19, 20},
    {4, 5, 6, 7, 9, 10, 12, 14, 15, 16},
    {1, 3, 4, 5, 8, 9, 13, 14, 17, 20},
    {1, 3, 5, 7, 8, 9, 13, 14, 17, 19}
];
