n = 30;
allowed = [
    {5, 10, 24, 26},
    {4, 5, 14, 27},
    {8, 11, 13, 20},
    {2, 14, 27, 28},
    {1, 2, 9, 26},
    {12, 17, 23, 29},
    {4, 16, 25, 28},
    {3, 11, 24, 30},
    {2, 5, 19, 21, 26},
    {1, 5, 8, 24, 26},
    {3, 8, 10, 15, 24},
    {6, 17, 18, 29},
    {3, 8, 11, 14, 20},
    {2, 4, 27, 28},
    {9, 19, 21, 22},
    {7, 25, 28, 30},
    {6, 20, 23, 29},
    {1, 9, 12, 29},
    {2, 14, 22, 27},
    {3, 11, 17, 23},
    {9, 15, 19, 22},
    {2, 13, 14, 19, 27},
    {6, 11, 17, 20, 30},
    {1, 10, 11, 26},
    {4, 7, 16, 28},
    {1, 2, 5, 10},
    {2, 4, 14, 18, 19},
    {4, 9, 14, 25, 27},
    {6, 12, 17, 18},
    {8, 10, 16, 25}
];
