n = 30;
allowed = [
    {4, 7, 8, 11, 14, 17, 20, 21, 22, 26},
    {7, 10, 12, 14, 15, 16, 24, 25, 28, 29},
    {5, 6, 9, 13, 15, 18, 19, 23, 27, 30},
    {1, 5, 6, 8, 9, 11, 18, 19, 21, 30},
    {4, 6, 8, 9, 13, 18, 19, 21, 27, 30},
    {3, 4, 5, 8, 9, 13, 18, 19, 27, 30},
    {2, 10, 11, 12, 14, 16, 17, 20, 22, 24, 26},
    {1, 4, 5, 6, 7, 11, 14, 15, 18, 19, 21},
    {3, 4, 5, 6, 8, 13, 18, 23, 27, 30},
    {2, 7, 12, 14, 16, 20, 24, 25, 26, 29},
    {1, 4, 7, 8, 14, 17, 20, 21, 22, 26},
    {7, 10, 11, 14, 16, 17, 20, 24, 25, 26},
    {3, 4, 5, 6, 9, 18, 19, 23, 27, 30},
    {7, 10, 11, 12, 16, 17, 20, 21, 24, 26},
    {2, 3, 9, 18, 23, 24, 25, 27, 28, 29},
    {2, 7, 10, 12, 14, 24, 25, 26, 28, 29},
    {1, 7, 10, 11, 12, 14, 20, 21, 22, 26},
    {3, 4, 5, 6, 8, 9, 13, 19, 27, 30},
    {4, 5, 6, 8, 9, 13, 18, 21, 27, 30},
    {1, 7, 10, 11, 12, 14, 16, 17, 21, 26},
    {1, 4, 5, 7, 8, 11, 14, 20, 22, 26},
    {1, 4, 5, 8, 11, 17, 19, 20, 21, 26},
    {2, 3, 6, 9, 13, 15, 18, 27, 28, 29},
    {2, 7, 10, 12, 14, 16, 25, 26, 28, 29},
    {2, 7, 10, 12, 14, 15, 16, 24, 28, 29},
    {1, 7, 10, 11, 12, 14, 16, 17, 20, 21},
    {3, 4, 5, 6, 9, 13, 18, 19, 23, 30},
    {2, 7, 9, 15, 16, 18, 23, 24, 25, 29},
    {2, 7, 10, 12, 14, 15, 16, 24, 25, 28},
    {3, 4, 5, 6, 8, 9, 13, 18, 19, 27}
];
