n = 30;
allowed = [
    {5, 10, 26},
    {4, 5, 27},
    {8, 11, 13, 14},
    {2, 14, 17, 27},
    {1, 2, 26},
    {12, 17, 19, 29},
    {16, 25, 28},
    {11, 24, 30},
    {2, 5, 18, 26},
    {1, 24, 26},
    {8, 10, 24},
    {6, 17, 29},
    {3, 8, 20},
    {2, 4, 27},
    {9, 21, 22},
    {7, 25, 30},
    {6, 23, 29},
    {1, 9, 12, 21},
    {14, 22, 27},
    {11, 13, 17, 23},
    {9, 15, 22, 23},
    {14, 15, 19, 27},
    {11, 17, 20},
    {1, 10, 11},
    {7, 16, 28},
    {1, 5, 10},
    {2, 4, 14},
    {4, 14, 25},
    {6, 12, 17},
    {8, 10, 16}
];
