n = 100;
allowed = [
    {15, 21, 30, 32, 68},
    {1, 15, 30, 65, 72},
    {30, 46, 64, 84, 87},
    {71, 86, 87, 93, 99},
    {11, 28, 44, 48, 70},
    {17, 20, 35, 45, 56},
    {12, 22, 26, 31, 41, 58},
    {39, 49, 81, 83, 88},
    {14, 53, 54, 71, 86, 87},
    {19, 69, 74, 90, 100},
    {5, 37, 66, 70, 96},
    {7, 31, 40, 41, 78},
    {29, 51, 56, 60, 75},
    {9, 54, 71, 87, 99},
    {1, 2, 21, 68, 72},
    {39, 43, 49, 54, 83, 88},
    {6, 35, 42, 45, 97},
    {33, 79, 81, 90, 91},
    {24, 26, 55, 74, 85},
    {6, 17, 35, 56, 97},
    {1, 15, 32, 68, 73},
    {37, 66, 71, 93, 99},
    {40, 76, 77, 78, 94},
    {19, 25, 26, 55, 85},
    {19, 24, 26, 55, 85},
    {19, 24, 25, 55, 85},
    {31, 63, 65, 82, 84},
    {36, 44, 48, 52, 61},
    {21, 51, 73, 75, 96},
    {1, 2, 21, 32, 68, 77},
    {7, 12, 26, 27, 41},
    {1, 15, 21, 30, 68},
    {18, 79, 81, 90, 91},
    {39, 49, 57, 67, 88},
    {17, 20, 42, 56, 97},
    {28, 44, 52, 61, 98},
    {11, 16, 22, 66, 93, 99},
    {40, 58, 77, 92, 95},
    {8, 16, 49, 83, 88},
    {23, 38, 58, 78, 94},
    {7, 12, 31, 40, 78},
    {35, 61, 89, 97, 98},
    {16, 34, 39, 49, 53},
    {28, 36, 48, 52, 61},
    {6, 17, 47, 50, 59},
    {3, 53, 64, 84, 87},
    {6, 45, 50, 59, 76},
    {5, 28, 36, 44, 52, 89},
    {16, 39, 57, 83, 88},
    {45, 47, 59, 76, 78},
    {29, 73, 75, 80, 96},
    {36, 44, 61, 97, 98},
    {3, 14, 43, 46, 87},
    {9, 14, 53, 71, 87},
    {5, 19, 24, 25, 26, 85},
    {6, 13, 20, 35, 97},
    {34, 39, 49, 67, 88},
    {38, 40, 92, 94, 95},
    {6, 17, 45, 47, 50},
    {13, 15, 27, 29, 56, 75},
    {36, 52, 89, 97, 98},
    {25, 55, 58, 92, 95, 100},
    {2, 27, 64, 65, 84},
    {3, 30, 63, 65, 84},
    {2, 27, 63, 64, 84},
    {22, 37, 71, 93, 99},
    {34, 57, 74, 82, 100},
    {1, 15, 21, 32, 70, 73},
    {10, 74, 81, 90, 100},
    {5, 11, 13, 48, 75},
    {4, 14, 22, 93, 99},
    {1, 2, 15, 21, 68},
    {29, 51, 75, 80, 96},
    {10, 19, 67, 69, 82},
    {13, 29, 51, 73, 96},
    {23, 47, 50, 78, 94},
    {7, 23, 38, 40, 92, 94},
    {40, 41, 50, 76, 94},
    {10, 18, 33, 90, 91},
    {21, 51, 52, 73, 86, 96},
    {8, 33, 83, 88, 100},
    {10, 27, 67, 74, 84},
    {8, 16, 39, 49, 88},
    {3, 46, 63, 64, 65},
    {19, 24, 25, 26, 55},
    {4, 32, 80, 93, 99},
    {3, 4, 14, 46, 53},
    {8, 39, 49, 60, 81, 83},
    {34, 42, 52, 61, 97, 98},
    {18, 31, 33, 69, 79, 91},
    {18, 33, 79, 81, 90},
    {38, 58, 62, 77, 95},
    {4, 66, 71, 86, 99},
    {9, 23, 40, 58, 76, 78},
    {38, 40, 58, 62, 92},
    {29, 51, 73, 75, 80},
    {20, 35, 42, 52, 61},
    {36, 42, 52, 61, 89},
    {4, 22, 66, 71, 93},
    {10, 57, 67, 69, 81}
];
