n = 100;
allowed = [
    {14, 78, 92},
    {13, 24, 31},
    {12, 50, 62, 63},
    {16, 53, 60, 86},
    {20, 76, 81},
    {60, 86, 97},
    {26, 54, 100},
    {19, 47, 84},
    {17, 22, 59},
    {18, 21, 34},
    {13, 24, 49},
    {56, 63, 70},
    {2, 11, 24, 70},
    {1, 25, 92},
    {33, 53, 67},
    {10, 18, 38},
    {9, 25, 59},
    {9, 10, 21, 27},
    {8, 47, 50},
    {5, 76, 81},
    {10, 34, 93, 94},
    {9, 32, 59},
    {41, 78, 95},
    {11, 13, 31},
    {14, 17, 59},
    {7, 67, 100},
    {18, 23, 95},
    {30, 36, 90},
    {58, 70, 75},
    {21, 28, 52, 90},
    {2, 24, 93},
    {9, 22, 64},
    {53, 54, 99},
    {10, 21, 94},
    {57, 65, 74},
    {28, 65, 90},
    {6, 60, 97},
    {10, 16, 18},
    {48, 49, 96},
    {72, 78, 80, 83},
    {23, 78, 95},
    {46, 66, 82},
    {61, 71, 100},
    {43, 61, 79},
    {55, 76, 79},
    {63, 66, 82},
    {8, 19, 50},
    {11, 39, 96, 100},
    {11, 39, 83, 85},
    {19, 47, 87},
    {15, 56, 67},
    {44, 45, 76},
    {15, 33, 80, 99},
    {33, 99, 100},
    {45, 77, 79, 91},
    {12, 63, 73},
    {35, 65, 74},
    {29, 70, 75, 90},
    {9, 17, 64},
    {6, 68, 86, 97},
    {1, 43, 44, 79},
    {4, 43, 44, 61},
    {12, 37, 46, 56},
    {22, 32, 59},
    {35, 36, 57},
    {42, 46, 82},
    {15, 26, 51},
    {42, 77, 84},
    {35, 91, 98},
    {29, 58, 75},
    {7, 54, 99, 100},
    {1, 40, 80},
    {46, 56, 88},
    {35, 57, 75},
    {29, 58, 70},
    {5, 20, 45},
    {3, 8, 68, 84},
    {1, 41, 80},
    {45, 55, 91},
    {40, 72, 78},
    {5, 85, 89},
    {31, 42, 46, 66},
    {13, 39, 49},
    {8, 68, 77},
    {5, 73, 81, 89},
    {6, 60, 97},
    {14, 39, 50, 92},
    {46, 55, 56, 73},
    {81, 85, 90},
    {28, 36, 89},
    {69, 79, 98},
    {1, 14, 56, 78},
    {2, 31, 66},
    {10, 21, 34},
    {23, 27, 41},
    {39, 48, 49},
    {6, 37, 60},
    {69, 79, 91},
    {33, 54, 71},
    {7, 54, 99}
];
