n = 30;
allowed = [
    {11, 21, 22},
    {16, 24, 29},
    {13, 18, 27},
    {5, 8, 21},
    {4, 6, 19},
    {5, 19, 30},
    {12, 14, 16, 25},
    {4, 5, 21},
    {3, 18, 27},
    {7, 12, 16},
    {1, 17, 21},
    {7, 10, 14},
    {3, 27, 30},
    {7, 12, 26},
    {9, 23, 28},
    {2, 7, 24},
    {11, 20, 26},
    {6, 9, 27},
    {5, 6, 23, 30},
    {14, 17, 26},
    {4, 8, 11},
    {1, 11, 17, 21},
    {3, 9, 15},
    {2, 7, 16, 28},
    {2, 16, 29},
    {14, 17, 20},
    {3, 9, 18},
    {2, 15, 29},
    {2, 19, 25, 28},
    {6, 13, 19}
];
