n = 20;
allowed = [
    {2, 3, 4, 12, 13, 14, 15},
    {1, 3, 4, 6, 12, 13, 15},
    {1, 2, 4, 9, 14, 15, 16},
    {1, 2, 3, 9, 11, 14, 15},
    {1, 6, 11, 13, 15, 17, 20},
    {1, 2, 12, 13, 15, 17, 20},
    {1, 2, 6, 10, 12, 15, 19},
    {3, 9, 10, 14, 16, 18, 19},
    {1, 2, 3, 4, 14, 15, 16},
    {3, 7, 8, 12, 16, 18, 19},
    {1, 2, 4, 5, 9, 13, 15, 20},
    {1, 2, 6, 7, 13, 15, 19},
    {1, 2, 5, 6, 11, 15, 20},
    {1, 2, 3, 4, 9, 10, 11, 15},
    {1, 2, 3, 4, 6, 13, 20},
    {3, 8, 9, 10, 14, 18, 19},
    {2, 5, 6, 12, 13, 15, 19, 20},
    {3, 7, 8, 10, 12, 16, 19},
    {1, 2, 3, 4, 7, 10, 12, 18},
    {1, 2, 5, 6, 13, 15, 17}
];
