n = 30;
allowed = [
    {2, 7, 23, 29},
    {1, 15, 16, 29},
    {7, 23, 25, 26},
    {9, 12, 17, 20},
    {10, 13, 24, 30},
    {15, 18, 27, 30},
    {1, 2, 19, 23, 29},
    {11, 14, 22, 25, 26},
    {4, 12, 14, 17, 20},
    {5, 13, 15, 24, 30},
    {14, 21, 25, 26},
    {4, 9, 17, 20},
    {5, 10, 24, 28},
    {9, 12, 21, 22},
    {2, 6, 12, 16, 29},
    {2, 6, 15, 29},
    {4, 9, 12, 20},
    {6, 21, 27, 30},
    {4, 8, 9, 17, 20},
    {4, 9, 12, 17},
    {6, 18, 22, 27},
    {18, 21, 27, 30},
    {1, 3, 7, 26},
    {5, 10, 13, 28},
    {3, 11, 23, 26},
    {3, 11, 21, 25},
    {6, 18, 21, 29},
    {5, 10, 13, 24},
    {2, 6, 15, 16},
    {5, 6, 18, 22}
];
