n = 50;
allowed = [
    {7, 10, 12, 20, 23, 30, 35},
    {7, 13, 24, 25, 30, 39, 47},
    {8, 9, 18, 28, 32, 33, 46},
    {17, 19, 22, 27, 36, 41, 50},
    {6, 16, 27, 29, 41, 44, 45},
    {5, 14, 16, 29, 31, 34, 44},
    {1, 2, 20, 24, 25, 26, 30, 39},
    {3, 9, 18, 28, 32, 33, 46},
    {3, 8, 28, 32, 33, 42, 46},
    {1, 12, 20, 23, 35, 48, 49},
    {18, 28, 32, 37, 40, 45, 46},
    {1, 7, 10, 20, 23, 30, 35},
    {2, 7, 24, 25, 39, 42, 47},
    {6, 15, 16, 31, 35, 48, 49},
    {14, 16, 31, 35, 39, 48, 49},
    {6, 14, 15, 21, 29, 31, 49},
    {5, 19, 21, 22, 27, 29, 41},
    {3, 8, 9, 28, 32, 40, 46},
    {4, 5, 17, 22, 27, 36, 41},
    {1, 7, 12, 23, 24, 30, 39},
    {14, 16, 29, 31, 35, 48, 49},
    {4, 19, 27, 36, 41, 45, 50},
    {1, 7, 10, 12, 20, 35, 48},
    {2, 7, 13, 20, 25, 30, 39},
    {2, 7, 13, 24, 30, 39, 47},
    {10, 21, 23, 31, 35, 38, 49},
    {5, 17, 19, 22, 29, 36, 41},
    {3, 8, 11, 18, 32, 40, 46},
    {5, 6, 14, 16, 31, 44, 49},
    {1, 2, 7, 12, 20, 24, 39},
    {14, 15, 16, 21, 35, 48, 49},
    {3, 8, 18, 28, 34, 37, 43},
    {3, 8, 9, 32, 42, 43, 47},
    {3, 6, 32, 42, 43, 44, 47},
    {7, 10, 14, 15, 23, 48, 49},
    {4, 19, 22, 27, 41, 45, 50},
    {11, 18, 28, 32, 40, 44, 45},
    {10, 11, 21, 23, 26, 31, 35, 49},
    {2, 7, 15, 20, 24, 25, 48},
    {8, 11, 18, 28, 32, 37, 46, 50},
    {4, 5, 19, 22, 27, 36, 42, 45},
    {3, 13, 32, 33, 34, 43, 47},
    {3, 8, 32, 34, 42, 44, 47},
    {5, 6, 16, 17, 29, 34, 43, 45},
    {5, 6, 11, 29, 37, 41, 44},
    {3, 8, 9, 18, 28, 32, 40},
    {2, 13, 25, 33, 34, 42, 43},
    {7, 10, 14, 15, 23, 35, 39},
    {14, 15, 16, 21, 31, 35, 48},
    {2, 4, 19, 22, 27, 36, 41, 45}
];
