n = 50;
allowed = [
    {4, 12, 27, 28},
    {1, 4, 27, 35},
    {15, 16, 22, 24, 35},
    {1, 2, 27, 35},
    {21, 34, 40, 42},
    {26, 31, 35, 36},
    {9, 47, 48, 50},
    {1, 10, 12, 28},
    {7, 47, 48, 50},
    {8, 12, 19, 32},
    {3, 16, 30, 31, 36},
    {8, 10, 30, 46},
    {22, 24, 37, 38},
    {17, 43, 45, 48},
    {3, 16, 22, 24},
    {3, 15, 22, 24},
    {14, 20, 41, 50},
    {13, 22, 24, 37},
    {10, 26, 32, 40, 42},
    {17, 29, 39, 41},
    {5, 23, 34, 42},
    {13, 15, 24, 37},
    {25, 30, 34, 46},
    {13, 15, 22, 37},
    {23, 30, 34, 46},
    {6, 15, 16, 18},
    {1, 4, 12, 19, 28},
    {1, 8, 12, 27},
    {2, 20, 39, 41, 49},
    {12, 18, 23, 25, 46},
    {6, 20, 26, 35, 36},
    {10, 19, 33, 40},
    {10, 19, 32, 40},
    {21, 23, 25, 42},
    {2, 4, 27, 36},
    {11, 16, 30, 31},
    {13, 18, 22, 24, 49},
    {7, 13, 44, 47},
    {20, 29, 41, 49},
    {5, 19, 32, 33},
    {17, 20, 29, 39},
    {5, 21, 23, 34},
    {14, 17, 20, 45, 47},
    {3, 13, 24, 38},
    {14, 17, 20, 43},
    {12, 23, 25, 30},
    {7, 9, 48, 50},
    {7, 9, 47, 50},
    {29, 39, 41, 50},
    {9, 15, 17, 47, 48}
];
