n = 50;
allowed = [
    {7, 12, 19, 20, 23, 30},
    {7, 13, 24, 25, 39},
    {8, 9, 28, 32, 33},
    {19, 22, 36, 41, 50},
    {6, 29, 41, 44, 45},
    {5, 14, 16, 29, 44},
    {1, 20, 24, 30, 39},
    {3, 9, 28, 32, 33, 38},
    {3, 8, 32, 33, 46},
    {1, 12, 23, 35, 48},
    {13, 18, 28, 32, 37, 40},
    {1, 7, 10, 20, 23},
    {2, 8, 24, 25, 39, 47},
    {15, 16, 31, 48, 49},
    {14, 16, 35, 39, 48},
    {14, 21, 29, 31, 49},
    {5, 19, 22, 27, 41},
    {3, 8, 28, 40, 46},
    {4, 17, 22, 27, 41},
    {1, 7, 12, 23, 30},
    {14, 16, 29, 31, 49},
    {4, 19, 27, 36, 41},
    {1, 10, 12, 35, 48},
    {2, 7, 25, 30, 39},
    {2, 7, 13, 24, 39},
    {10, 17, 21, 31, 38, 49},
    {5, 17, 19, 22, 41, 50},
    {3, 8, 18, 32, 46},
    {5, 6, 16, 31, 44},
    {1, 7, 20, 24, 39},
    {14, 15, 16, 21, 49},
    {3, 8, 28, 34, 43},
    {3, 8, 9, 42, 47},
    {32, 42, 43, 44, 47},
    {10, 14, 15, 23, 48},
    {4, 19, 22, 41, 50},
    {11, 28, 32, 40, 45},
    {10, 21, 26, 31, 49},
    {2, 7, 15, 24, 25},
    {11, 18, 28, 37, 46},
    {5, 22, 27, 36, 45},
    {32, 33, 34, 43, 47},
    {32, 34, 42, 44, 47},
    {5, 6, 29, 34, 45},
    {5, 29, 37, 41, 44},
    {3, 8, 9, 18, 28},
    {2, 13, 25, 42, 43},
    {10, 14, 15, 23, 35},
    {14, 15, 16, 21, 31, 34},
    {2, 4, 19, 22, 36, 41}
];
