n = 30;
allowed = [
    {8, 9, 11, 26},
    {6, 12, 20, 21, 30},
    {8, 15, 26, 28},
    {8, 23, 25, 27},
    {14, 16, 18, 29},
    {12, 19, 24, 30},
    {2, 6, 10, 20, 30},
    {4, 15, 26, 28},
    {1, 4, 8, 15, 26},
    {2, 7, 12, 20},
    {10, 13, 17, 22, 26},
    {6, 19, 24, 30},
    {16, 17, 22, 26},
    {5, 16, 22, 29},
    {3, 17, 20, 26, 28},
    {13, 14, 22, 29},
    {11, 13, 22, 26},
    {5, 14, 16, 29},
    {6, 24, 25, 30},
    {2, 3, 7, 30},
    {11, 19, 23, 25, 27},
    {13, 14, 16, 29},
    {4, 19, 25, 27},
    {6, 12, 19, 30},
    {4, 19, 23, 27},
    {8, 13, 15, 17},
    {4, 21, 23, 25},
    {3, 8, 15, 26},
    {1, 5, 14, 16, 22},
    {6, 12, 19, 24}
];
