n = 20;
allowed = [
    {2, 3, 7, 10, 11},
    {1, 7, 10, 14, 16},
    {1, 2, 7, 10, 11},
    {5, 9, 11, 16, 17},
    {4, 9, 15, 17, 18},
    {8, 12, 13, 14, 19},
    {2, 10, 11, 14, 16},
    {6, 12, 13, 14, 19},
    {4, 5, 11, 15, 17},
    {1, 2, 4, 7, 14, 16},
    {3, 4, 7, 9, 10, 16},
    {6, 8, 14, 16, 19},
    {2, 6, 7, 8, 11, 14},
    {2, 7, 10, 13, 16},
    {4, 5, 9, 17, 18},
    {2, 7, 10, 11, 14},
    {4, 5, 9, 15, 18},
    {5, 9, 15, 17, 20},
    {6, 8, 12, 13, 14},
    {5, 6, 12, 15, 18}
];
