n = 20;
allowed = [
    {5, 7, 8, 9, 12, 13, 14, 15, 16, 20},
    {3, 5, 6, 10, 11, 12, 14, 17, 18, 20},
    {1, 2, 6, 9, 12, 13, 16, 17, 18, 20},
    {1, 5, 7, 8, 9, 14, 15, 16, 19, 20},
    {1, 2, 7, 10, 11, 12, 14, 17, 18, 20},
    {1, 2, 3, 9, 12, 13, 15, 16, 17, 20},
    {1, 4, 5, 8, 11, 12, 14, 15, 19, 20},
    {1, 4, 5, 7, 9, 14, 15, 16, 19, 20},
    {1, 3, 5, 6, 7, 8, 13, 15, 16, 20},
    {1, 2, 5, 7, 11, 12, 14, 17, 18, 20},
    {1, 2, 5, 7, 10, 12, 14, 17, 18, 20},
    {1, 2, 5, 7, 10, 11, 14, 17, 18, 20},
    {1, 3, 5, 6, 9, 12, 15, 16, 17, 20},
    {1, 2, 5, 7, 10, 11, 12, 17, 18, 20},
    {1, 4, 6, 7, 8, 9, 13, 16, 19, 20},
    {1, 3, 5, 6, 7, 8, 9, 13, 15, 20},
    {1, 2, 3, 5, 10, 11, 12, 14, 18, 20},
    {2, 3, 5, 6, 10, 11, 12, 14, 17, 19, 20},
    {1, 4, 5, 7, 8, 9, 14, 15, 16, 20},
    {1, 3, 5, 6, 7, 11, 12, 13, 16, 17}
];
