n = 20;
allowed = [
    {4, 8, 11, 17, 20},
    {7, 10, 12, 14, 15, 16},
    {5, 6, 9, 13, 14, 18},
    {5, 6, 8, 18, 19},
    {4, 6, 8, 18, 19},
    {4, 5, 13, 18, 19},
    {10, 12, 14, 16, 20},
    {1, 4, 5, 6, 11},
    {3, 5, 6, 13, 18},
    {7, 12, 14, 16, 20},
    {1, 8, 14, 17, 20},
    {7, 10, 14, 16, 20},
    {3, 5, 6, 9, 18},
    {7, 10, 12, 17, 20},
    {2, 3, 9, 16, 17, 18},
    {2, 7, 10, 12, 14},
    {1, 11, 12, 14, 20},
    {3, 5, 6, 9, 13},
    {4, 5, 6, 8, 13},
    {2, 7, 11, 12, 14, 17}
];
