n = 30;
allowed = [
    {2, 3, 7, 10, 20, 23, 28, 30},
    {7, 10, 14, 16, 23, 27, 30},
    {1, 2, 7, 10, 23, 28, 30},
    {5, 9, 11, 16, 17, 21, 28},
    {4, 9, 15, 17, 18, 21, 25},
    {8, 12, 13, 19, 22, 27, 29},
    {2, 10, 14, 16, 26, 27, 30},
    {6, 12, 13, 19, 24, 27, 29},
    {4, 5, 11, 15, 17, 18, 21},
    {2, 7, 14, 16, 23, 28, 30},
    {4, 7, 10, 16, 21, 28, 30},
    {6, 8, 14, 19, 22, 26, 29},
    {2, 6, 8, 14, 24, 27, 29},
    {2, 3, 7, 10, 16, 26, 27, 30},
    {4, 5, 9, 17, 18, 21, 25},
    {2, 7, 10, 14, 26, 27, 30},
    {4, 5, 9, 15, 18, 21, 25},
    {5, 9, 15, 17, 20, 21, 25},
    {6, 8, 9, 12, 13, 22, 24, 29},
    {6, 12, 15, 18, 21, 22, 25},
    {4, 9, 11, 15, 16, 18, 25, 29},
    {6, 8, 12, 14, 16, 26, 29},
    {1, 2, 3, 7, 10, 28, 30},
    {6, 8, 12, 13, 19, 27, 29},
    {5, 9, 15, 18, 20, 21, 22},
    {7, 10, 14, 16, 22, 27, 30},
    {2, 7, 8, 13, 14, 16, 26},
    {2, 7, 10, 11, 16, 23, 30},
    {6, 8, 12, 13, 19, 22, 24},
    {2, 7, 10, 11, 16, 23, 28}
];
