n = 50;
allowed = [
    {7, 45, 48},
    {16, 29, 45, 46},
    {23, 37, 41},
    {17, 20, 42},
    {10, 30, 50},
    {18, 27, 30},
    {1, 45, 49},
    {31, 43, 47},
    {4, 12, 20},
    {5, 13, 33},
    {26, 31, 32},
    {9, 40, 44},
    {3, 10, 24, 33},
    {12, 35, 44},
    {16, 29, 39, 46},
    {2, 15, 46},
    {4, 20, 42},
    {6, 27, 29, 30},
    {4, 35, 42},
    {4, 9, 17},
    {18, 22, 27},
    {18, 21, 27, 50},
    {3, 34, 36},
    {10, 13, 33},
    {3, 21, 37, 38},
    {11, 32, 37},
    {6, 18, 21},
    {10, 13, 33, 42},
    {2, 15, 46},
    {5, 6, 18},
    {11, 32, 43},
    {11, 26, 37, 47},
    {13, 24, 28},
    {15, 23, 41, 49},
    {5, 9, 14, 19},
    {23, 37, 45},
    {3, 26, 36},
    {11, 25, 37},
    {4, 17, 20, 40},
    {9, 12, 28, 39},
    {3, 34, 49},
    {4, 17, 20, 22},
    {8, 31, 38, 47},
    {12, 14, 40},
    {1, 2, 29},
    {2, 16, 29},
    {8, 31, 43},
    {1, 2, 16, 19},
    {7, 34, 41},
    {5, 10, 30, 48}
];
