n = 20;
allowed = [
    {3, 4, 5, 10, 13, 15, 16, 17, 18, 20},
    {1, 3, 5, 8, 9, 10, 16, 17, 18, 20},
    {1, 2, 4, 5, 10, 15, 16, 17, 18, 20},
    {1, 3, 6, 7, 13, 14, 15, 16, 17, 18},
    {1, 2, 3, 9, 10, 15, 16, 17, 19, 20},
    {1, 3, 4, 7, 11, 12, 13, 14, 17, 18},
    {1, 3, 4, 5, 6, 13, 14, 15, 16, 17},
    {1, 2, 3, 10, 11, 12, 13, 14, 16, 17, 18},
    {1, 2, 3, 5, 10, 15, 16, 17, 19, 20},
    {1, 2, 3, 5, 9, 15, 16, 17, 18, 20},
    {1, 3, 4, 6, 8, 12, 13, 14, 16, 18},
    {1, 2, 3, 4, 6, 8, 10, 11, 13, 18},
    {1, 3, 4, 6, 11, 12, 14, 16, 17, 18},
    {1, 3, 4, 6, 7, 11, 13, 16, 17, 18},
    {1, 3, 4, 5, 7, 9, 10, 16, 17, 20},
    {1, 2, 3, 4, 5, 10, 15, 17, 18, 20},
    {1, 3, 4, 5, 7, 10, 15, 16, 18, 20},
    {1, 3, 4, 6, 8, 10, 12, 13, 16, 17},
    {1, 2, 3, 5, 7, 9, 10, 15, 16, 17, 20},
    {1, 2, 3, 5, 9, 10, 15, 16, 17, 19}
];
