n = 100;
allowed = [
    {59, 75, 97, 98},
    {3, 37, 41, 58, 72},
    {2, 20, 58, 72},
    {43, 56, 60, 81},
    {51, 69, 88, 92},
    {11, 12, 23, 30, 57},
    {46, 52, 66, 70},
    {18, 80, 90, 100},
    {43, 48, 71, 99},
    {17, 19, 45, 79, 98},
    {12, 24, 29, 57, 94},
    {6, 11, 57, 94},
    {11, 12, 29, 94},
    {32, 42, 55, 61},
    {26, 47, 48, 71},
    {37, 41, 63, 67, 89},
    {10, 19, 45, 79},
    {8, 39, 65, 100},
    {10, 17, 35, 79},
    {3, 44, 49, 58},
    {6, 57, 64, 85, 92},
    {7, 47, 52, 67},
    {34, 48, 50, 99},
    {33, 76, 82, 85},
    {32, 40, 56, 81},
    {38, 47, 52, 66},
    {64, 92, 95, 96},
    {24, 33, 62, 77},
    {11, 12, 13, 94},
    {6, 11, 12, 57},
    {3, 41, 72, 86},
    {14, 25, 40, 55},
    {24, 28, 85, 100},
    {23, 48, 50, 99},
    {10, 17, 19, 79},
    {40, 61, 82, 91},
    {2, 16, 63, 89},
    {26, 28, 54, 62},
    {18, 53, 65, 83},
    {32, 36, 61, 91},
    {2, 31, 72, 86},
    {14, 35, 55, 61},
    {4, 9, 60, 71},
    {20, 49, 53, 58},
    {10, 17, 68, 79},
    {7, 41, 54, 66, 70},
    {15, 22, 52, 67},
    {9, 23, 34, 99},
    {3, 20, 44, 58},
    {15, 23, 34, 48, 92},
    {5, 64, 69, 92},
    {7, 22, 66, 67},
    {39, 59, 84, 97},
    {38, 66, 70, 90},
    {14, 35, 42, 61},
    {4, 43, 60, 81},
    {6, 11, 12, 94},
    {2, 3, 20, 49},
    {1, 75, 84, 97},
    {4, 43, 56, 81},
    {19, 36, 40, 91},
    {28, 33, 38, 77},
    {16, 37, 41, 89},
    {27, 51, 69, 92},
    {18, 39, 83, 100},
    {7, 46, 52, 70},
    {7, 22, 47, 52, 87},
    {10, 17, 21, 45, 79},
    {5, 51, 88, 92},
    {7, 46, 54, 66},
    {9, 43, 48, 99},
    {3, 31, 41, 86},
    {65, 76, 83, 87},
    {78, 88, 93, 95},
    {1, 59, 84, 97},
    {73, 82, 85, 100},
    {24, 28, 33, 62},
    {74, 88, 93, 95},
    {10, 17, 19, 45},
    {8, 90, 95, 98},
    {4, 25, 56, 60},
    {24, 36, 76, 85},
    {39, 65, 73, 87},
    {53, 59, 75, 97},
    {24, 33, 76, 100},
    {3, 31, 41, 72},
    {10, 45, 73, 83},
    {5, 69, 74, 78},
    {2, 16, 37, 63},
    {8, 54, 80, 100},
    {19, 30, 36, 40, 61},
    {27, 51, 64, 69, 97},
    {1, 75, 78, 98},
    {11, 12, 29, 57},
    {27, 74, 78, 80},
    {27, 46, 80, 90},
    {1, 59, 68, 75, 84},
    {1, 75, 93, 97},
    {9, 34, 48, 71},
    {13, 18, 65, 76, 85}
];
