n = 100;
allowed = [
    {2, 24, 45, 66, 69, 75, 80},
    {1, 24, 50, 54, 58, 69, 80},
    {8, 11, 39, 44, 46, 60, 76},
    {1, 35, 37, 47, 48, 59, 93},
    {20, 55, 73, 77, 82, 85, 99},
    {14, 21, 30, 49, 53, 56, 81},
    {14, 30, 32, 49, 53, 78, 81},
    {3, 11, 28, 31, 46, 60, 76},
    {15, 16, 25, 26, 65, 72, 97},
    {9, 17, 25, 52, 54, 63, 72, 95},
    {3, 8, 28, 39, 44, 60, 76},
    {7, 30, 32, 51, 63, 86, 98},
    {5, 33, 36, 43, 73, 82, 100},
    {7, 13, 30, 32, 49, 53, 78, 81},
    {9, 16, 25, 26, 65, 84, 97},
    {9, 15, 25, 26, 65, 84, 97},
    {10, 18, 37, 48, 54, 80, 95},
    {9, 10, 17, 25, 42, 48, 95},
    {38, 71, 74, 76, 79, 92, 96},
    {5, 55, 73, 82, 85, 88, 100},
    {6, 14, 49, 53, 56, 78, 81},
    {23, 28, 31, 40, 46, 62, 67},
    {22, 50, 61, 67, 68, 90, 91},
    {1, 2, 50, 54, 58, 69, 80},
    {9, 15, 16, 18, 26, 42, 65},
    {9, 15, 16, 25, 65, 84, 97},
    {15, 16, 29, 34, 41, 84, 94},
    {3, 8, 11, 31, 46, 60, 76},
    {15, 16, 27, 34, 41, 84, 94},
    {7, 14, 32, 53, 56, 81, 86},
    {8, 28, 40, 46, 74, 76, 89},
    {7, 12, 14, 30, 53, 81, 86},
    {5, 13, 36, 43, 73, 82, 100},
    {15, 16, 27, 29, 41, 84, 94},
    {4, 37, 47, 48, 59, 80, 93},
    {5, 13, 33, 43, 68, 73, 83},
    {2, 17, 24, 48, 54, 69, 80},
    {4, 11, 19, 71, 76, 79, 92, 96},
    {3, 8, 11, 44, 57, 60, 76},
    {22, 31, 62, 67, 74, 87, 89},
    {15, 16, 27, 29, 34, 83, 84, 94},
    {9, 18, 25, 26, 48, 65, 95},
    {5, 13, 33, 36, 73, 76, 82, 100},
    {3, 11, 39, 46, 57, 60, 76},
    {55, 66, 70, 75, 85, 88, 99},
    {3, 8, 11, 28, 60, 76, 83},
    {4, 17, 35, 37, 48, 59, 93},
    {17, 18, 35, 37, 42, 54, 95},
    {6, 7, 14, 21, 78, 81, 87},
    {2, 23, 24, 52, 58, 69, 91},
    {12, 52, 61, 63, 72, 86, 98},
    {10, 50, 51, 54, 58, 72, 98},
    {6, 7, 14, 21, 30, 56, 81},
    {2, 10, 17, 58, 69, 72, 80},
    {5, 70, 73, 77, 85, 88, 99},
    {6, 7, 14, 21, 30, 53, 81},
    {3, 8, 11, 39, 44, 46, 60},
    {2, 24, 50, 52, 54, 69, 80},
    {1, 4, 35, 45, 47, 66, 75},
    {3, 8, 11, 39, 44, 57, 76},
    {22, 23, 40, 51, 62, 67, 98},
    {22, 31, 40, 61, 67, 87, 89},
    {9, 12, 15, 72, 84, 86, 97},
    {13, 20, 33, 43, 82, 85, 88, 100},
    {9, 15, 16, 25, 26, 42, 97},
    {1, 45, 70, 75, 77, 90, 99},
    {22, 23, 31, 40, 61, 62, 83},
    {55, 70, 73, 77, 90, 91, 99},
    {1, 2, 24, 50, 54, 58, 80},
    {45, 55, 66, 68, 77, 90, 99},
    {3, 11, 19, 38, 39, 60, 76},
    {9, 10, 25, 51, 52, 54, 63},
    {5, 36, 55, 64, 68, 77, 82, 99},
    {31, 40, 79, 87, 89, 92, 96},
    {1, 45, 55, 66, 70, 87, 88, 99},
    {3, 8, 11, 28, 39, 46, 60},
    {5, 55, 68, 70, 73, 90, 99},
    {7, 14, 21, 49, 53, 81, 87},
    {19, 31, 38, 74, 89, 92, 96},
    {1, 2, 24, 37, 54, 58, 69},
    {6, 7, 14, 21, 49, 53, 78},
    {5, 13, 20, 33, 43, 73, 100},
    {3, 8, 20, 22, 28, 36, 46, 67},
    {15, 16, 26, 29, 34, 63, 97},
    {5, 20, 45, 55, 73, 88, 99},
    {7, 12, 14, 30, 32, 51, 63},
    {10, 40, 49, 62, 74, 78, 81, 89},
    {5, 20, 45, 55, 75, 85, 99},
    {31, 40, 62, 74, 79, 87, 96},
    {45, 66, 68, 70, 77, 91, 99},
    {23, 50, 68, 70, 77, 90, 99},
    {19, 38, 71, 74, 79, 89, 96},
    {4, 17, 29, 35, 37, 47, 48, 59},
    {15, 16, 27, 29, 34, 41, 84},
    {9, 10, 17, 18, 25, 42, 48, 77},
    {19, 49, 74, 79, 87, 89, 92},
    {9, 15, 16, 26, 63, 65, 84},
    {7, 12, 32, 35, 51, 52, 61, 62},
    {5, 45, 55, 68, 70, 77, 90},
    {5, 13, 20, 33, 43, 73, 82}
];
