n = 30;
allowed = [
    {7, 12, 20},
    {10, 13, 24, 25},
    {8, 9, 28},
    {3, 19, 22, 27},
    {6, 27, 29},
    {14, 16, 29},
    {1, 20, 24, 30},
    {3, 9, 11, 28},
    {3, 8, 28},
    {1, 12, 23, 26},
    {2, 8, 18, 28},
    {1, 20, 23, 25},
    {2, 24, 25},
    {6, 15, 16},
    {14, 16, 23},
    {14, 21, 29},
    {5, 19, 27},
    {3, 8, 28},
    {17, 22, 27},
    {1, 7, 12},
    {14, 16, 29},
    {4, 19, 27},
    {1, 10, 12},
    {2, 7, 25},
    {2, 13, 24},
    {10, 17, 21, 23},
    {5, 17, 19},
    {3, 8, 18},
    {5, 6, 16},
    {7, 20, 24, 27}
];
