n = 50;
allowed = [
    {20, 29, 43, 48},
    {17, 18, 35, 50},
    {6, 21, 26, 33},
    {1, 19, 22, 36, 41},
    {11, 14, 40, 43},
    {3, 13, 21, 39},
    {5, 40, 43, 46},
    {23, 30, 34, 41},
    {15, 16, 25, 47},
    {24, 28, 32, 44},
    {5, 9, 10, 14, 24},
    {17, 28, 38, 42},
    {6, 16, 21, 39},
    {5, 11, 24, 40},
    {23, 31, 45, 47},
    {9, 13, 15, 27, 47},
    {2, 12, 18, 42},
    {2, 17, 35, 50},
    {4, 22, 36, 41},
    {1, 29, 38, 48},
    {3, 6, 26, 39},
    {4, 19, 36, 41},
    {30, 31, 34, 45},
    {10, 11, 28, 32},
    {9, 15, 16, 27, 37},
    {3, 21, 33, 49},
    {9, 13, 16, 25},
    {10, 24, 32, 44},
    {1, 20, 43, 48},
    {23, 31, 34, 39, 45},
    {8, 23, 30, 34},
    {10, 24, 28, 37},
    {3, 21, 26, 38, 49},
    {8, 23, 30, 31},
    {2, 18, 34, 42, 44},
    {4, 19, 22, 41},
    {2, 10, 11, 24, 32},
    {20, 26, 33, 49},
    {3, 6, 13, 21},
    {5, 7, 14, 43},
    {4, 8, 19, 22},
    {12, 17, 18, 44},
    {1, 5, 7, 40},
    {10, 28, 35, 42},
    {23, 30, 31, 34},
    {7, 8, 16, 22, 41},
    {1, 15, 31, 48},
    {1, 20, 29, 40, 47},
    {3, 26, 33, 38},
    {2, 17, 18, 49}
];
