n = 50;
allowed = [
    {2, 3, 10, 23, 28, 30, 31, 37, 39, 41},
    {7, 10, 23, 27, 30, 31, 37, 39, 45, 50},
    {1, 2, 10, 22, 23, 28, 30, 31, 37, 39, 41},
    {5, 9, 11, 17, 21, 28, 33, 36, 44, 49},
    {4, 9, 15, 17, 18, 21, 33, 36, 44, 49},
    {8, 12, 13, 19, 22, 27, 29, 35, 40, 48},
    {2, 10, 14, 16, 26, 30, 31, 37, 45, 50},
    {6, 12, 13, 19, 24, 27, 29, 32, 34, 48},
    {4, 5, 11, 15, 17, 21, 33, 36, 44, 49},
    {2, 7, 23, 28, 30, 31, 37, 39, 45, 50},
    {4, 10, 16, 21, 28, 30, 31, 33, 37, 44},
    {6, 8, 22, 26, 29, 35, 40, 43, 47, 48},
    {6, 8, 24, 27, 29, 32, 34, 35, 48, 50},
    {7, 16, 26, 35, 37, 40, 43, 45, 48, 50},
    {5, 9, 17, 18, 21, 25, 33, 36, 47, 49},
    {7, 14, 26, 30, 35, 37, 40, 43, 45, 50},
    {4, 5, 9, 15, 18, 21, 33, 36, 44, 49},
    {5, 9, 15, 17, 20, 21, 25, 36, 47, 49},
    {6, 8, 12, 13, 22, 24, 29, 32, 46, 48},
    {2, 12, 15, 18, 22, 25, 38, 40, 42, 47, 49},
    {4, 9, 15, 18, 25, 33, 36, 43, 44, 49},
    {6, 8, 12, 26, 29, 35, 38, 40, 43, 47, 48},
    {1, 2, 3, 10, 30, 31, 37, 39, 41, 45},
    {6, 8, 13, 19, 27, 29, 32, 34, 46, 48},
    {9, 15, 18, 20, 21, 22, 36, 40, 47, 49},
    {7, 14, 16, 35, 37, 40, 43, 45, 48, 50},
    {7, 13, 14, 26, 32, 34, 35, 45, 48, 50},
    {2, 7, 10, 11, 23, 30, 31, 37, 39, 45},
    {6, 8, 12, 13, 19, 22, 24, 27, 35, 48},
    {2, 7, 10, 11, 16, 28, 31, 37, 39, 45},
    {2, 7, 10, 11, 23, 28, 30, 37, 39, 45},
    {2, 8, 13, 14, 27, 34, 35, 45, 48, 50},
    {4, 5, 9, 11, 15, 17, 21, 36, 44, 49},
    {2, 8, 13, 14, 27, 32, 35, 45, 48, 50},
    {7, 14, 16, 26, 27, 40, 43, 45, 48, 50},
    {4, 5, 9, 15, 17, 18, 21, 33, 42, 44, 49},
    {2, 7, 10, 14, 16, 28, 30, 31, 45, 50},
    {6, 12, 15, 18, 20, 22, 25, 42, 47, 49},
    {1, 2, 3, 10, 23, 28, 30, 31, 37, 41},
    {14, 16, 22, 26, 35, 43, 47, 48, 49, 50},
    {1, 2, 3, 10, 23, 28, 30, 31, 37, 39},
    {6, 12, 15, 18, 20, 22, 25, 29, 38, 47},
    {7, 14, 16, 26, 35, 37, 40, 45, 48, 50},
    {4, 9, 11, 16, 21, 30, 31, 33, 43, 49},
    {2, 7, 10, 14, 16, 26, 27, 30, 37, 50},
    {6, 8, 13, 19, 24, 27, 29, 32, 34, 39, 48},
    {6, 12, 20, 22, 25, 35, 40, 43, 48, 49},
    {6, 8, 12, 14, 22, 26, 27, 29, 35, 40},
    {4, 9, 15, 18, 21, 25, 40, 43, 44, 47},
    {7, 14, 16, 26, 27, 35, 37, 40, 43, 45}
];
