n = 30;
allowed = [
    {3, 11, 12, 15, 19, 24, 25, 27},
    {5, 9, 13, 18, 22, 29, 30},
    {4, 16, 18, 21, 23, 24, 26},
    {3, 6, 16, 18, 23, 24, 26},
    {2, 9, 13, 22, 24, 29, 30},
    {3, 4, 10, 17, 18, 23, 26, 28},
    {8, 10, 12, 16, 17, 21, 26},
    {7, 10, 12, 16, 17, 21, 22, 28},
    {2, 5, 13, 19, 22, 29, 30},
    {6, 7, 16, 21, 23, 26, 28},
    {1, 3, 15, 19, 24, 25, 27},
    {7, 8, 10, 16, 17, 21, 28},
    {2, 5, 9, 19, 22, 29, 30},
    {1, 11, 15, 17, 19, 20, 25, 27},
    {1, 11, 17, 19, 24, 25, 27},
    {3, 4, 10, 21, 23, 24, 26},
    {7, 10, 11, 15, 16, 21, 26, 27},
    {2, 3, 4, 6, 23, 24, 26},
    {1, 5, 9, 11, 13, 15, 25},
    {6, 10, 18, 21, 23, 26, 28},
    {3, 7, 10, 16, 23, 26, 28},
    {2, 5, 9, 13, 14, 19, 29, 30},
    {3, 6, 10, 18, 21, 26, 28},
    {3, 4, 5, 13, 16, 18, 26},
    {1, 11, 14, 15, 19, 24, 27},
    {3, 4, 10, 16, 21, 23, 24},
    {1, 7, 11, 15, 16, 17, 25},
    {6, 7, 10, 16, 21, 23, 26},
    {2, 5, 9, 13, 19, 22, 30},
    {2, 5, 9, 13, 19, 22, 29}
];
