n = 20;
allowed = [
    {2, 5, 10, 14, 17, 20},
    {1, 9, 10, 17, 18},
    {5, 8, 11, 13, 19},
    {1, 2, 10, 17, 18},
    {1, 2, 8, 13, 20},
    {7, 8, 12, 14, 19},
    {6, 8, 12, 14, 19},
    {3, 7, 11, 13, 19},
    {10, 15, 16, 17, 18},
    {2, 9, 15, 17, 18},
    {3, 4, 7, 8, 13, 19},
    {6, 7, 10, 14, 15},
    {3, 5, 8, 11, 20},
    {6, 7, 8, 12, 19},
    {9, 10, 12, 16, 18},
    {9, 10, 12, 15, 18},
    {1, 2, 9, 10, 18},
    {9, 10, 15, 16, 17},
    {3, 7, 8, 11, 14},
    {1, 2, 5, 8, 13}
];
