n = 100;
allowed = [
    {26, 41, 46, 57, 93},
    {4, 27, 49, 80, 82},
    {58, 65, 67, 69, 70, 97},
    {2, 27, 45, 71, 82},
    {1, 26, 41, 43, 57, 80},
    {17, 29, 50, 66, 68},
    {15, 16, 25, 28, 70, 100},
    {42, 44, 64, 84, 88},
    {5, 31, 34, 39, 47, 99},
    {1, 24, 36, 59, 78},
    {24, 62, 63, 88, 95},
    {29, 38, 68, 89, 99},
    {3, 65, 69, 76, 97},
    {2, 4, 27, 45, 71},
    {21, 33, 53, 59, 74, 86},
    {25, 30, 55, 70, 96},
    {6, 13, 23, 50, 66, 92},
    {32, 43, 81, 87, 91},
    {22, 34, 45, 49, 51},
    {23, 35, 60, 72, 83},
    {33, 61, 73, 74, 75},
    {19, 34, 45, 49, 51},
    {20, 66, 72, 77, 83},
    {10, 48, 59, 63, 78},
    {7, 16, 28, 71, 100},
    {1, 5, 41, 57, 80},
    {2, 4, 14, 28, 45, 71},
    {4, 14, 25, 71, 100},
    {6, 12, 68, 89, 99},
    {16, 44, 55, 64, 96},
    {5, 9, 34, 39, 49},
    {18, 43, 81, 89, 92},
    {21, 61, 74, 75, 86},
    {2, 19, 22, 31, 49, 54},
    {20, 58, 60, 67, 68, 83},
    {10, 59, 64, 78, 84, 96},
    {39, 47, 56, 87, 91},
    {12, 29, 52, 68, 99},
    {9, 31, 37, 47, 91},
    {45, 52, 54, 73, 85, 87},
    {1, 5, 10, 26, 57},
    {8, 44, 84, 88, 98},
    {18, 32, 37, 87, 91},
    {8, 30, 55, 64, 84},
    {2, 4, 14, 27, 71},
    {56, 57, 90, 93, 94},
    {37, 46, 56, 93, 94},
    {1, 24, 63, 78, 90},
    {2, 19, 31, 34, 80},
    {17, 20, 23, 66, 72},
    {19, 22, 34, 45, 49},
    {38, 40, 43, 54, 85},
    {15, 33, 74, 75, 86},
    {40, 52, 73, 85, 87},
    {8, 16, 30, 44, 64},
    {46, 47, 57, 93, 94},
    {46, 56, 90, 93, 94},
    {60, 65, 67, 69, 97},
    {10, 24, 36, 78, 96},
    {35, 58, 67, 72, 83},
    {21, 33, 73, 74, 75},
    {11, 35, 63, 88, 95},
    {11, 17, 24, 48, 62, 78},
    {8, 30, 36, 44, 96},
    {3, 58, 67, 69, 97},
    {17, 20, 23, 50, 77},
    {35, 58, 60, 69, 97},
    {6, 12, 29, 38, 99},
    {58, 60, 65, 67, 97},
    {16, 25, 30, 55, 96},
    {4, 14, 27, 45, 82},
    {20, 35, 60, 67, 83},
    {21, 54, 61, 87, 91},
    {15, 21, 33, 53, 61},
    {9, 21, 33, 53, 61, 86},
    {3, 13, 65, 97, 98},
    {23, 66, 79, 81, 92},
    {10, 24, 36, 59, 63},
    {32, 77, 81, 89, 92},
    {2, 5, 26, 49, 82},
    {18, 32, 79, 89, 92},
    {2, 4, 27, 71, 80},
    {20, 35, 60, 67, 72},
    {8, 42, 44, 88, 98},
    {40, 52, 54, 73, 87},
    {15, 33, 53, 74, 75},
    {18, 37, 43, 73, 91},
    {8, 11, 42, 84, 95},
    {18, 32, 79, 81, 92},
    {46, 48, 57, 93, 94},
    {18, 37, 43, 73, 87},
    {32, 77, 79, 81, 89},
    {29, 46, 56, 57, 90, 94},
    {46, 56, 57, 90, 93},
    {11, 35, 62, 63, 88},
    {10, 30, 36, 59, 64},
    {3, 58, 65, 67, 69},
    {3, 8, 42, 76, 84},
    {6, 12, 29, 38, 68},
    {7, 14, 25, 28, 71}
];
