n = 50;
allowed = [
    {12, 23, 37},
    {4, 17, 34},
    {41, 47, 49},
    {11, 19, 25, 36},
    {6, 9, 39},
    {5, 9, 17, 29},
    {14, 35, 49},
    {15, 38, 50},
    {5, 23, 46},
    {9, 18, 27, 32},
    {19, 29, 36},
    {1, 5, 37},
    {7, 22, 44, 49},
    {7, 35, 48},
    {8, 16, 38},
    {8, 15, 38},
    {2, 11, 29},
    {10, 27, 32},
    {11, 29, 36},
    {26, 35, 49},
    {16, 38, 42, 45},
    {13, 39, 43},
    {1, 5, 9, 45},
    {28, 32, 33},
    {18, 27, 50},
    {20, 41, 46, 49},
    {10, 18, 25},
    {10, 24, 32},
    {6, 11, 19},
    {19, 28, 31, 42},
    {30, 39, 42},
    {10, 18, 28},
    {20, 24, 28, 47},
    {2, 4, 17, 44},
    {7, 14, 31, 48},
    {4, 19, 42},
    {1, 12, 23},
    {8, 15, 16},
    {5, 29, 31},
    {8, 15, 41, 50},
    {3, 47, 49},
    {30, 31, 36},
    {1, 3, 13, 22},
    {7, 13, 14},
    {16, 21, 38},
    {6, 9, 16, 23},
    {3, 33, 41},
    {7, 14, 35},
    {3, 7, 41},
    {8, 38, 40}
];
