n = 30;
allowed = [
    {2, 7, 29},
    {15, 16, 29},
    {23, 25, 26},
    {9, 17, 20},
    {10, 13, 30},
    {18, 27, 30},
    {1, 2, 23},
    {11, 25, 26, 28},
    {4, 12, 20, 25},
    {5, 13, 24},
    {21, 25, 26},
    {4, 9, 20},
    {10, 24, 28},
    {9, 12, 22},
    {6, 16, 29},
    {2, 15, 29},
    {4, 9, 19, 20},
    {6, 27, 30},
    {4, 8, 9, 20},
    {4, 9, 17},
    {17, 18, 22, 27},
    {18, 21, 27},
    {1, 3, 7},
    {5, 10, 13, 22},
    {3, 11, 26},
    {3, 11, 25},
    {6, 18, 21},
    {5, 10, 13, 14},
    {2, 6, 15, 16},
    {5, 6, 18}
];
