n = 50;
allowed = [
    {5, 7, 16, 20, 29, 31, 34, 43, 47, 48},
    {12, 17, 18, 33, 35, 38, 42, 44, 49, 50},
    {6, 13, 20, 21, 26, 33, 38, 39, 49, 50},
    {8, 19, 22, 23, 30, 34, 36, 41, 45, 46},
    {1, 7, 11, 12, 14, 20, 24, 29, 40, 43},
    {3, 13, 16, 21, 26, 27, 33, 38, 39, 49},
    {1, 5, 8, 14, 29, 31, 40, 43, 46, 48},
    {4, 19, 22, 23, 30, 31, 34, 41, 45, 46},
    {6, 13, 15, 16, 25, 27, 29, 39, 47, 48},
    {11, 12, 17, 24, 28, 32, 35, 37, 42, 44},
    {5, 10, 12, 14, 24, 28, 32, 37, 40, 42},
    {5, 10, 11, 17, 18, 24, 28, 38, 42, 44},
    {3, 6, 9, 16, 21, 25, 26, 27, 33, 39},
    {5, 7, 10, 11, 24, 28, 32, 37, 40, 43},
    {9, 16, 23, 25, 30, 31, 34, 45, 47, 48},
    {1, 9, 13, 15, 25, 27, 29, 39, 47, 48},
    {2, 10, 12, 18, 28, 35, 38, 42, 44, 50},
    {2, 12, 17, 28, 35, 38, 42, 44, 49, 50},
    {4, 8, 22, 23, 30, 34, 36, 41, 45, 46},
    {1, 5, 12, 16, 26, 29, 37, 38, 43, 47, 48},
    {3, 6, 13, 16, 26, 27, 33, 38, 39, 49},
    {4, 8, 19, 23, 30, 31, 34, 36, 41, 46},
    {1, 8, 15, 30, 31, 34, 41, 45, 47, 48},
    {5, 10, 11, 12, 14, 28, 32, 37, 42, 44},
    {6, 9, 13, 15, 16, 27, 39, 45, 47, 48},
    {3, 6, 13, 20, 21, 33, 38, 39, 49, 50},
    {3, 6, 9, 13, 15, 16, 21, 25, 39, 47},
    {10, 11, 12, 17, 24, 32, 35, 37, 42, 44},
    {1, 5, 7, 16, 20, 31, 38, 43, 47, 48},
    {4, 8, 15, 19, 23, 31, 34, 41, 45, 47},
    {1, 8, 15, 23, 30, 34, 41, 45, 47, 48},
    {10, 11, 12, 14, 24, 28, 35, 37, 42, 44},
    {2, 3, 6, 13, 21, 26, 38, 39, 49, 50},
    {8, 15, 23, 30, 31, 41, 45, 46, 47, 48},
    {2, 10, 12, 17, 18, 24, 28, 42, 44, 50},
    {2, 4, 8, 19, 22, 23, 30, 31, 34, 41, 46},
    {5, 10, 11, 14, 19, 24, 28, 32, 40, 42, 44},
    {2, 3, 12, 17, 20, 26, 33, 42, 49, 50},
    {3, 6, 13, 16, 21, 26, 27, 33, 38, 49},
    {1, 5, 7, 11, 14, 20, 24, 29, 43, 46},
    {4, 8, 19, 22, 23, 30, 31, 34, 36, 45},
    {2, 10, 12, 17, 18, 24, 28, 35, 44, 50},
    {1, 5, 7, 20, 29, 31, 40, 46, 47, 48},
    {10, 11, 12, 17, 18, 24, 28, 32, 35, 42},
    {4, 8, 15, 19, 23, 30, 31, 34, 41, 47},
    {4, 7, 8, 19, 22, 30, 31, 34, 41, 43},
    {1, 9, 15, 16, 23, 29, 30, 31, 34, 48},
    {1, 15, 16, 20, 23, 29, 31, 34, 43, 47},
    {2, 3, 6, 17, 21, 26, 33, 38, 39, 50},
    {2, 12, 17, 18, 26, 33, 35, 38, 42, 49}
];
