n = 50;
allowed = [
    {13, 21, 41},
    {17, 25, 38},
    {10, 16, 33},
    {5, 40, 45},
    {4, 40, 45},
    {13, 18, 41},
    {27, 44, 49},
    {13, 18, 43},
    {24, 37, 46},
    {3, 16, 33},
    {12, 26, 50},
    {25, 31, 38},
    {6, 8, 41},
    {7, 37, 44, 49},
    {20, 23, 28},
    {10, 19, 33},
    {1, 2, 21},
    {6, 8, 43},
    {10, 16, 33},
    {15, 23, 39},
    {1, 3, 10},
    {30, 32, 47},
    {15, 20, 28, 49},
    {7, 9, 46},
    {12, 16, 38},
    {11, 12, 50},
    {7, 35, 39},
    {4, 15, 45},
    {4, 36, 42},
    {19, 22, 32},
    {1, 12, 25, 38},
    {19, 22, 30, 47},
    {3, 9, 10, 16},
    {9, 12, 37, 47},
    {7, 27, 39},
    {15, 29, 42, 43},
    {9, 22, 24, 46},
    {12, 25, 31},
    {20, 27, 35},
    {4, 5, 29, 45},
    {2, 6, 8, 13},
    {15, 29, 36},
    {8, 11, 13, 18},
    {7, 14, 49},
    {4, 5, 40},
    {7, 9, 24},
    {9, 22, 34},
    {20, 23, 28},
    {7, 14, 44},
    {11, 12, 26, 48}
];
