n = 50;
allowed = [
    {4, 27, 28},
    {4, 27, 35},
    {15, 16, 24},
    {1, 2, 27},
    {21, 34, 42},
    {26, 31, 36},
    {9, 47, 48},
    {10, 12, 28},
    {14, 47, 48, 50},
    {8, 12, 19},
    {3, 16, 36},
    {8, 10, 46},
    {19, 22, 24, 37},
    {17, 43, 45},
    {3, 22, 24},
    {3, 15, 20, 24},
    {20, 41, 50},
    {13, 22, 37},
    {10, 32, 40},
    {17, 39, 41},
    {5, 34, 42, 44},
    {15, 24, 37},
    {17, 25, 30, 46},
    {13, 15, 22},
    {23, 30, 46},
    {5, 6, 15, 18},
    {1, 4, 28},
    {1, 8, 27},
    {39, 41, 49},
    {23, 25, 46},
    {6, 26, 36},
    {19, 33, 40},
    {19, 32, 35, 40},
    {21, 23, 42},
    {2, 4, 36},
    {11, 30, 31},
    {13, 18, 22},
    {7, 13, 16, 44},
    {20, 29, 41},
    {19, 32, 33},
    {20, 29, 39},
    {5, 21, 34},
    {6, 14, 17, 45},
    {3, 24, 38},
    {14, 17, 43},
    {12, 23, 30},
    {7, 9, 48},
    {7, 47, 50},
    {29, 31, 39, 41},
    {9, 47, 48}
];
