n = 30;
allowed = [
    {3, 8, 18},
    {3, 16, 20},
    {1, 2, 20},
    {9, 25, 28},
    {2, 16, 27},
    {11, 12, 30},
    {13, 22, 26},
    {1, 18, 24},
    {4, 15, 23},
    {14, 17, 19, 30},
    {6, 12, 29},
    {6, 11, 29},
    {11, 12, 15, 29},
    {10, 19, 25},
    {22, 23, 26},
    {2, 3, 5},
    {10, 14, 19},
    {1, 8, 24},
    {10, 14, 17},
    {1, 2, 3},
    {6, 11, 12},
    {7, 15, 26},
    {9, 15, 22},
    {8, 18, 28},
    {4, 14, 24},
    {7, 9, 15, 22},
    {5, 8, 21},
    {8, 24, 26},
    {11, 12, 13},
    {6, 11, 12, 18}
];
