n = 50;
allowed = [
    {17, 19, 35, 42, 44, 46, 48},
    {8, 15, 23, 25, 32, 37, 42, 44},
    {1, 11, 33, 37, 42, 46, 48},
    {5, 6, 9, 20, 30, 39, 41},
    {4, 6, 7, 30, 31, 39, 40},
    {4, 5, 20, 21, 30, 31, 39, 40},
    {5, 24, 28, 34, 38, 40, 45},
    {10, 11, 18, 23, 31, 33, 49},
    {4, 5, 20, 30, 34, 36, 39},
    {8, 18, 24, 29, 31, 33, 49},
    {2, 3, 8, 18, 23, 33, 37},
    {2, 14, 15, 27, 32, 44, 47},
    {8, 10, 18, 24, 29, 33, 49, 50},
    {12, 15, 25, 27, 32, 44, 47},
    {12, 14, 21, 25, 27, 32, 43},
    {1, 17, 19, 26, 35, 46, 47},
    {1, 16, 19, 26, 42, 46, 48},
    {8, 10, 24, 29, 31, 33, 49},
    {1, 16, 17, 26, 35, 42, 46},
    {4, 5, 6, 9, 30, 39, 41},
    {15, 20, 22, 25, 27, 41, 43},
    {14, 15, 20, 21, 27, 41, 43},
    {2, 8, 18, 25, 31, 37, 49},
    {7, 10, 18, 28, 38, 45, 49},
    {2, 6, 15, 20, 23, 31, 32},
    {1, 16, 17, 19, 35, 42, 46},
    {12, 14, 15, 21, 22, 32, 43},
    {7, 24, 34, 38, 40, 45, 49},
    {10, 13, 18, 24, 33, 49, 50},
    {4, 5, 6, 9, 20, 36, 39},
    {5, 6, 8, 10, 18, 40, 49},
    {2, 12, 14, 15, 25, 44, 47},
    {8, 10, 11, 18, 29, 37, 49},
    {5, 7, 9, 28, 36, 40, 45},
    {1, 17, 19, 37, 42, 44, 46},
    {4, 5, 9, 30, 34, 39, 40, 41},
    {2, 8, 11, 23, 33, 35, 44},
    {7, 10, 24, 28, 40, 45, 49},
    {4, 5, 6, 9, 20, 30, 36},
    {4, 5, 6, 7, 28, 31, 34},
    {4, 6, 20, 21, 30, 39, 43},
    {1, 17, 19, 35, 44, 46, 48},
    {3, 14, 15, 20, 21, 22, 27, 41},
    {1, 2, 19, 32, 35, 37, 42},
    {7, 24, 28, 34, 38, 40, 49},
    {1, 17, 19, 26, 35, 42, 48},
    {12, 14, 16, 26, 32, 35, 44},
    {1, 2, 3, 17, 19, 35, 42, 46},
    {8, 10, 18, 24, 31, 33, 38},
    {10, 13, 18, 24, 29, 33, 49}
];
