n = 50;
allowed = [
    {18, 31, 39, 47},
    {3, 20, 41},
    {2, 20, 31},
    {9, 21, 25, 43},
    {16, 22, 27, 41},
    {11, 12, 30},
    {22, 26, 46},
    {1, 18, 33},
    {34, 43, 48},
    {17, 19, 45},
    {6, 12, 29},
    {6, 11, 16, 29},
    {11, 12, 29},
    {32, 40, 42},
    {26, 47, 48},
    {2, 37, 41},
    {6, 10, 19, 45},
    {1, 8, 39},
    {10, 17, 35},
    {3, 4, 44, 49},
    {6, 11, 12, 39},
    {7, 26, 36, 47},
    {34, 48, 50},
    {28, 33, 36},
    {14, 32, 40},
    {7, 27, 38, 47},
    {5, 8, 21},
    {24, 33, 38},
    {11, 12, 13},
    {6, 11, 12},
    {2, 3, 19, 41},
    {14, 25, 40, 50},
    {8, 24, 28},
    {23, 48, 50},
    {10, 17, 19, 49},
    {10, 32, 40},
    {2, 16, 41, 43},
    {7, 26, 28},
    {1, 18, 44},
    {25, 32, 36},
    {2, 3, 31},
    {14, 32, 35},
    {4, 9, 15},
    {3, 20, 49},
    {10, 17, 19},
    {7, 13, 18, 38},
    {15, 22, 26},
    {8, 9, 23, 34},
    {3, 20, 44},
    {23, 34, 42, 48}
];
