n = 100;
allowed = [
    {27, 28, 52, 64},
    {4, 35, 97, 99},
    {15, 16, 51, 54},
    {1, 2, 64, 99},
    {58, 62, 63, 67},
    {31, 60, 65, 66},
    {9, 47, 48, 85},
    {10, 20, 75, 76, 81},
    {47, 48, 50, 90},
    {56, 75, 76, 79},
    {3, 16, 27, 51, 91},
    {8, 46, 75, 76, 91},
    {22, 24, 74, 95},
    {17, 43, 45, 83},
    {3, 22, 24, 54},
    {3, 15, 54, 94},
    {41, 50, 69, 82, 83},
    {37, 70, 74, 87},
    {32, 56, 79, 80},
    {17, 39, 41, 58, 82},
    {34, 42, 71, 92},
    {15, 24, 37, 54},
    {25, 30, 46, 71},
    {13, 15, 22, 54},
    {23, 30, 71, 98},
    {59, 68, 69, 86},
    {1, 28, 52, 64},
    {1, 8, 52, 64},
    {39, 41, 50, 88, 96},
    {23, 45, 46, 72, 100},
    {6, 60, 65, 66},
    {19, 40, 42, 78, 84},
    {32, 40, 78, 82, 84},
    {21, 42, 71, 75, 92},
    {2, 66, 97, 99},
    {55, 61, 93, 97},
    {18, 70, 74, 87},
    {13, 44, 89, 95},
    {29, 41, 88, 96},
    {32, 58, 67, 84},
    {20, 29, 39, 82},
    {21, 34, 80, 92},
    {14, 17, 45, 83, 86},
    {38, 51, 89, 90},
    {14, 17, 43, 83},
    {23, 30, 72, 100},
    {7, 9, 48, 85},
    {7, 47, 50, 85},
    {57, 73, 88, 96},
    {9, 47, 48, 85},
    {3, 44, 89, 91},
    {1, 27, 28, 64},
    {29, 39, 62, 96},
    {3, 15, 22, 24},
    {59, 60, 61, 68},
    {10, 75, 79, 81},
    {49, 73, 90, 98},
    {5, 40, 63, 67},
    {26, 68, 77, 94},
    {6, 31, 55, 59, 61},
    {40, 55, 59, 68, 94},
    {29, 53, 88, 96},
    {5, 21, 34, 42},
    {1, 27, 28, 52, 93},
    {6, 31, 55, 66},
    {6, 31, 65, 97},
    {12, 40, 58, 80, 92},
    {59, 61, 77, 94},
    {26, 59, 68, 86},
    {18, 37, 53, 74, 87},
    {21, 23, 25, 34},
    {30, 46, 93, 100},
    {49, 57, 88, 98},
    {18, 22, 37, 87},
    {10, 56, 76, 79},
    {8, 10, 75, 79},
    {16, 59, 68, 94},
    {19, 32, 33, 84},
    {10, 56, 75, 76},
    {19, 42, 79, 92},
    {8, 10, 56, 75},
    {17, 20, 41, 83},
    {14, 17, 43, 82},
    {32, 33, 40, 78},
    {7, 21, 47, 48, 50},
    {15, 22, 33, 70, 77},
    {18, 37, 70, 74},
    {29, 39, 49, 96},
    {3, 26, 44, 51, 54},
    {9, 44, 47, 89},
    {3, 11, 51, 89},
    {21, 34, 42, 80},
    {36, 43, 72, 97, 100},
    {16, 36, 59, 68, 77},
    {13, 38, 44, 89},
    {29, 39, 49, 88},
    {2, 35, 65, 93},
    {25, 57, 71, 73},
    {2, 4, 35, 97},
    {23, 30, 46, 72}
];
