n = 30;
allowed = [
    {2, 7, 10, 12, 15, 20, 23, 24, 25, 30},
    {1, 7, 8, 13, 14, 15, 20, 23, 24, 25, 30},
    {2, 6, 8, 9, 11, 13, 14, 18, 25, 28},
    {5, 6, 11, 16, 17, 19, 21, 22, 27, 29},
    {6, 14, 15, 16, 17, 19, 21, 22, 27, 29},
    {2, 5, 11, 14, 15, 16, 21, 23, 27, 29},
    {1, 2, 10, 12, 15, 20, 23, 24, 25, 30},
    {2, 3, 6, 9, 11, 13, 14, 18, 25, 28},
    {2, 3, 6, 8, 11, 13, 18, 24, 25, 28},
    {1, 7, 12, 14, 15, 16, 20, 21, 23, 26},
    {3, 5, 6, 8, 9, 14, 18, 22, 28, 29},
    {1, 2, 7, 10, 15, 20, 23, 24, 25, 30},
    {2, 3, 7, 9, 14, 15, 20, 24, 25, 30},
    {2, 6, 7, 10, 15, 16, 21, 23, 24, 29},
    {2, 6, 7, 10, 14, 16, 21, 23, 24, 25},
    {5, 6, 7, 10, 14, 15, 21, 23, 26, 29},
    {4, 5, 6, 16, 19, 21, 22, 26, 27, 29},
    {3, 5, 6, 8, 9, 11, 13, 25, 28, 29},
    {4, 5, 6, 16, 17, 21, 22, 26, 27, 29},
    {1, 2, 7, 10, 12, 15, 23, 24, 25, 30},
    {5, 6, 10, 14, 15, 16, 23, 26, 27, 29},
    {4, 5, 6, 11, 16, 17, 19, 21, 27, 29},
    {1, 7, 10, 12, 14, 15, 16, 20, 21, 24},
    {1, 2, 7, 12, 13, 15, 20, 23, 25, 30},
    {1, 2, 7, 13, 14, 15, 20, 23, 24, 30},
    {10, 12, 14, 15, 16, 17, 21, 23, 27, 28, 29},
    {4, 5, 6, 16, 17, 19, 21, 22, 26, 29},
    {3, 5, 6, 8, 9, 11, 13, 14, 18, 22, 29},
    {4, 5, 6, 10, 14, 15, 16, 17, 21, 23, 27},
    {1, 2, 7, 10, 12, 13, 20, 23, 24, 25}
];
