n = 50;
allowed = [
    {2, 24, 45, 50},
    {1, 24, 37, 50},
    {8, 11, 39, 44},
    {35, 37, 47, 48},
    {20, 33, 36, 43},
    {14, 21, 30, 49},
    {14, 30, 32, 49},
    {3, 11, 28, 46},
    {15, 16, 25, 26, 47},
    {2, 9, 17, 25},
    {3, 8, 39, 44},
    {7, 14, 30, 32},
    {5, 33, 36, 43},
    {7, 30, 32, 49},
    {9, 16, 25, 26},
    {9, 15, 25, 26},
    {10, 18, 37, 48},
    {17, 25, 42, 48},
    {11, 12, 28, 31, 38},
    {5, 33, 42, 43, 45},
    {6, 7, 14, 49},
    {28, 31, 40, 46},
    {22, 40, 46, 50},
    {1, 2, 37, 50},
    {9, 16, 26, 42},
    {9, 15, 16, 25},
    {16, 29, 34, 41},
    {8, 11, 31, 46},
    {16, 27, 34, 41},
    {6, 7, 14, 32},
    {8, 28, 40, 46},
    {7, 12, 14, 21, 30},
    {5, 13, 36, 43},
    {16, 27, 29, 41},
    {4, 37, 38, 47, 48},
    {5, 13, 33, 43},
    {2, 17, 24, 48},
    {11, 19, 28, 31},
    {3, 8, 11, 44},
    {22, 28, 31, 49},
    {16, 27, 29, 34, 35},
    {9, 18, 25, 26},
    {5, 13, 23, 33, 36},
    {3, 11, 34, 39, 46},
    {1, 5, 20, 24},
    {3, 8, 11, 28},
    {4, 35, 37, 48},
    {17, 18, 37, 42},
    {6, 7, 14, 20, 21},
    {1, 2, 23, 24}
];
