n = 50;
allowed = [
    {6, 22, 27, 29, 32, 34, 38},
    {12, 14, 18, 19, 23, 44, 47},
    {7, 16, 17, 28, 37, 39, 46},
    {8, 9, 20, 34, 36, 38, 43},
    {1, 6, 22, 27, 30, 32, 47},
    {1, 5, 22, 27, 32, 34, 38},
    {3, 16, 17, 33, 35, 39, 40},
    {4, 9, 13, 20, 31, 36, 43},
    {8, 10, 13, 20, 31, 36, 43},
    {9, 13, 20, 31, 35, 36, 49},
    {7, 21, 26, 29, 32, 33, 40, 50},
    {2, 14, 18, 19, 23, 30, 35, 47},
    {4, 8, 9, 10, 20, 31, 43},
    {2, 18, 19, 23, 26, 44, 48},
    {5, 24, 25, 27, 30, 45, 50},
    {3, 7, 17, 33, 35, 37, 39},
    {3, 7, 16, 28, 37, 40, 46},
    {2, 12, 14, 19, 23, 44, 47},
    {2, 12, 14, 18, 23, 44, 47},
    {4, 8, 9, 13, 31, 36, 43},
    {11, 22, 26, 29, 32, 33, 38},
    {1, 5, 6, 21, 27, 30, 32, 41},
    {2, 14, 18, 19, 40, 44, 48},
    {6, 15, 27, 41, 42, 45, 50},
    {5, 15, 27, 30, 45, 47, 50},
    {11, 21, 29, 32, 33, 40, 44},
    {1, 5, 6, 22, 25, 30, 45},
    {3, 7, 16, 17, 37, 39, 40, 46},
    {1, 11, 21, 26, 32, 33, 38},
    {1, 5, 6, 22, 25, 27, 47},
    {8, 9, 10, 13, 20, 36, 43},
    {1, 11, 21, 22, 26, 29, 38},
    {7, 11, 16, 17, 26, 29, 40},
    {1, 4, 6, 20, 38, 41, 42},
    {7, 10, 16, 22, 33, 36, 39, 49},
    {4, 9, 10, 20, 35, 38, 49},
    {3, 16, 17, 28, 39, 40, 46},
    {1, 4, 6, 29, 32, 34, 36},
    {3, 7, 16, 17, 33, 35, 49},
    {7, 16, 17, 26, 28, 33, 37},
    {1, 4, 6, 24, 33, 34, 42, 45},
    {1, 4, 6, 24, 34, 41, 45},
    {4, 8, 9, 13, 20, 31, 36},
    {11, 14, 21, 23, 26, 40, 48},
    {6, 15, 24, 27, 41, 42, 50},
    {3, 16, 17, 28, 37, 39, 40},
    {2, 5, 12, 18, 19, 22, 30},
    {12, 14, 17, 23, 28, 37, 40, 44},
    {7, 9, 10, 31, 35, 36, 39},
    {5, 15, 24, 25, 27, 42, 45}
];
