n = 100;
allowed = [
    {41, 51, 64, 65, 71, 75, 85, 90, 95, 96, 97},
    {17, 25, 38, 53, 58, 69, 71, 76, 78, 79},
    {10, 16, 19, 21, 25, 33, 53, 61, 73, 75},
    {5, 15, 28, 29, 40, 45, 54, 62, 67, 89},
    {4, 15, 28, 40, 45, 52, 54, 67, 89, 91},
    {8, 13, 18, 41, 43, 63, 64, 66, 74, 97},
    {14, 24, 27, 35, 39, 44, 46, 49, 80, 84},
    {13, 18, 41, 43, 51, 64, 74, 91, 96, 97},
    {24, 34, 37, 46, 47, 80, 84, 86, 98, 100},
    {3, 16, 19, 21, 25, 33, 53, 57, 61, 73},
    {2, 12, 25, 26, 31, 38, 50, 58, 76, 95},
    {19, 25, 26, 31, 38, 50, 76, 93, 95, 99},
    {6, 8, 18, 41, 43, 51, 63, 64, 74, 97},
    {7, 24, 27, 35, 39, 44, 49, 79, 83, 84, 92},
    {4, 20, 23, 28, 29, 45, 52, 62, 89, 92},
    {3, 10, 19, 21, 25, 33, 38, 53, 69, 73},
    {1, 2, 53, 58, 65, 69, 71, 78, 79, 90},
    {6, 8, 13, 43, 51, 63, 66, 74, 91, 97},
    {3, 10, 16, 25, 30, 32, 33, 38, 53, 99},
    {15, 23, 35, 39, 48, 52, 55, 73, 89, 92},
    {1, 3, 10, 53, 61, 71, 73, 75, 78, 85},
    {30, 32, 47, 56, 59, 60, 81, 87, 88, 100},
    {15, 20, 28, 39, 42, 48, 52, 55, 62, 89, 92},
    {7, 9, 27, 44, 46, 49, 80, 84, 98, 100},
    {3, 10, 12, 16, 19, 31, 38, 53, 69, 76},
    {11, 12, 25, 31, 38, 50, 58, 76, 93, 95},
    {7, 14, 24, 35, 39, 44, 49, 57, 84, 92},
    {4, 5, 15, 23, 40, 45, 48, 52, 67, 89},
    {4, 15, 28, 36, 40, 42, 62, 68, 83, 92},
    {16, 19, 22, 32, 33, 56, 81, 88, 93, 99},
    {12, 19, 25, 26, 38, 50, 76, 93, 95, 99},
    {11, 16, 19, 22, 30, 33, 57, 81, 88, 99, 100},
    {3, 10, 16, 19, 21, 32, 53, 57, 61, 73},
    {9, 37, 47, 59, 60, 72, 86, 87, 88, 94},
    {7, 20, 24, 27, 39, 55, 57, 73, 84, 92},
    {4, 15, 23, 28, 29, 42, 62, 68, 83, 92},
    {9, 24, 34, 46, 47, 72, 80, 86, 98, 100},
    {12, 16, 19, 25, 31, 50, 76, 93, 95, 99},
    {7, 14, 20, 23, 27, 35, 55, 57, 84, 92},
    {4, 5, 15, 28, 29, 45, 54, 62, 67, 91},
    {6, 8, 13, 43, 51, 63, 64, 74, 96, 97},
    {4, 14, 15, 29, 36, 62, 68, 77, 83, 92},
    {8, 13, 18, 41, 51, 64, 67, 91, 96, 97},
    {7, 14, 24, 27, 39, 46, 49, 80, 84, 92},
    {4, 5, 15, 28, 40, 52, 54, 67, 89, 91},
    {7, 9, 24, 27, 37, 44, 80, 84, 98, 100},
    {22, 34, 59, 60, 72, 81, 86, 87, 88, 94},
    {20, 23, 28, 52, 55, 61, 70, 75, 82, 89},
    {7, 14, 24, 27, 39, 44, 46, 80, 84, 92},
    {11, 12, 25, 26, 31, 38, 58, 76, 93, 95},
    {8, 13, 18, 41, 43, 64, 67, 70, 96, 97},
    {15, 20, 23, 28, 45, 48, 55, 70, 82, 89},
    {2, 3, 10, 16, 19, 21, 25, 33, 69, 78},
    {4, 5, 8, 18, 28, 40, 43, 45, 67, 91},
    {20, 23, 35, 39, 52, 57, 61, 73, 89, 92},
    {22, 30, 47, 59, 60, 81, 87, 88, 93, 99},
    {20, 27, 32, 33, 35, 39, 55, 73, 84, 100},
    {2, 17, 25, 38, 50, 53, 69, 76, 78, 79},
    {22, 34, 47, 56, 60, 72, 81, 87, 88, 94},
    {22, 34, 47, 56, 59, 72, 81, 86, 87, 88},
    {3, 10, 21, 48, 52, 55, 70, 73, 75, 82},
    {4, 15, 23, 28, 29, 36, 42, 83, 89, 92},
    {6, 8, 13, 18, 41, 43, 64, 66, 74, 97},
    {1, 8, 13, 41, 43, 51, 74, 85, 96, 97},
    {1, 13, 17, 41, 64, 71, 79, 85, 90, 97},
    {6, 8, 13, 18, 41, 43, 51, 63, 74, 91},
    {4, 5, 8, 28, 40, 43, 45, 51, 54, 91},
    {14, 15, 29, 36, 42, 49, 62, 77, 83, 92},
    {2, 16, 17, 21, 25, 53, 58, 76, 78, 79},
    {48, 51, 52, 61, 67, 75, 82, 85, 96, 97},
    {1, 17, 64, 65, 75, 78, 85, 90, 96, 97},
    {9, 34, 37, 47, 59, 60, 86, 87, 94, 98},
    {3, 10, 20, 21, 33, 35, 48, 55, 57, 61},
    {4, 6, 8, 13, 18, 41, 43, 63, 64, 66, 97},
    {1, 21, 48, 61, 70, 71, 82, 85, 96, 97},
    {2, 11, 12, 25, 26, 31, 32, 38, 50, 58, 69},
    {14, 29, 36, 42, 44, 49, 62, 68, 83, 92},
    {1, 2, 17, 21, 53, 58, 69, 71, 79, 90},
    {1, 2, 17, 53, 58, 65, 69, 71, 78, 90},
    {7, 9, 24, 37, 44, 46, 49, 84, 98, 100},
    {22, 30, 32, 47, 56, 59, 60, 87, 88, 99},
    {48, 51, 52, 61, 67, 70, 75, 85, 89, 96},
    {14, 15, 23, 29, 36, 42, 49, 62, 68, 92},
    {7, 24, 27, 35, 39, 44, 46, 57, 98, 100},
    {1, 21, 51, 64, 70, 71, 75, 82, 96, 97},
    {9, 24, 34, 37, 47, 59, 60, 72, 87, 94, 98},
    {22, 34, 47, 56, 59, 60, 72, 81, 86, 88},
    {22, 30, 32, 47, 56, 59, 60, 81, 87, 100},
    {4, 15, 20, 23, 28, 45, 48, 52, 55, 82},
    {1, 13, 17, 41, 64, 65, 71, 78, 79, 85},
    {5, 8, 18, 40, 43, 45, 51, 54, 66, 67},
    {14, 15, 20, 23, 27, 39, 55, 62, 83, 89},
    {12, 19, 25, 30, 31, 38, 56, 81, 95, 99},
    {34, 37, 47, 56, 59, 60, 72, 86, 87, 88},
    {12, 19, 25, 26, 31, 38, 50, 76, 93, 99},
    {1, 8, 41, 43, 51, 64, 70, 75, 85, 97},
    {1, 8, 13, 18, 41, 43, 51, 64, 85, 96},
    {7, 9, 24, 37, 46, 47, 80, 84, 86, 100},
    {12, 19, 25, 30, 31, 32, 38, 81, 93, 95},
    {9, 22, 24, 37, 46, 47, 84, 87, 88, 98}
];
