n = 30;
allowed = [
    {17, 19, 26},
    {8, 23, 25},
    {1, 11, 19},
    {5, 6, 20, 30},
    {4, 6, 30},
    {4, 5, 9, 20},
    {5, 24, 28},
    {10, 18, 23},
    {4, 5, 13, 30},
    {8, 18, 24},
    {2, 8, 10, 18},
    {14, 15, 27},
    {10, 18, 29},
    {12, 15, 27},
    {12, 14, 25},
    {17, 18, 19, 26},
    {16, 19, 26},
    {8, 10, 24},
    {1, 17, 26},
    {4, 6, 30},
    {15, 20, 22},
    {11, 15, 21, 27},
    {2, 8, 25},
    {10, 18, 28},
    {2, 15, 23},
    {16, 17, 19},
    {3, 12, 14, 15},
    {7, 10, 24},
    {10, 13, 18, 21},
    {4, 9, 20}
];
