n = 50;
allowed = [
    {3, 8, 18, 31, 39, 41, 44},
    {3, 20, 31, 37, 41, 44, 49},
    {2, 20, 31, 37, 41, 44, 49},
    {9, 15, 24, 25, 28, 40, 43},
    {1, 2, 16, 27, 31, 37, 41},
    {11, 12, 13, 21, 27, 29, 30},
    {13, 15, 22, 26, 38, 46, 47},
    {1, 18, 24, 28, 33, 39, 46},
    {4, 15, 23, 34, 43, 48, 50},
    {17, 19, 35, 36, 40, 42, 45},
    {6, 12, 13, 21, 29, 30, 46},
    {6, 11, 13, 21, 29, 30, 46},
    {6, 7, 11, 12, 22, 29, 46},
    {19, 25, 32, 35, 36, 40, 42},
    {22, 23, 26, 43, 47, 48, 50},
    {2, 3, 5, 20, 31, 37, 41},
    {10, 19, 35, 36, 40, 42, 45},
    {1, 8, 24, 31, 33, 39, 44},
    {10, 14, 17, 35, 36, 42, 45},
    {1, 2, 3, 31, 41, 44, 49},
    {6, 11, 12, 13, 27, 29, 30},
    {7, 15, 26, 31, 38, 46, 47, 50},
    {9, 15, 22, 34, 47, 48, 50},
    {8, 18, 28, 33, 36, 38, 40},
    {4, 14, 24, 32, 36, 40, 42},
    {7, 15, 22, 28, 38, 46, 47},
    {1, 5, 8, 11, 18, 21, 46},
    {7, 8, 24, 26, 33, 38, 43},
    {6, 7, 11, 12, 13, 18, 30, 46},
    {6, 11, 12, 13, 21, 27, 29},
    {1, 2, 3, 20, 41, 44, 49},
    {14, 19, 25, 35, 36, 40, 42},
    {8, 18, 24, 28, 36, 38, 39},
    {9, 15, 23, 33, 43, 47, 48, 50},
    {4, 10, 14, 17, 19, 36, 42, 45},
    {10, 19, 24, 25, 32, 35, 40},
    {2, 3, 16, 20, 31, 41, 49},
    {7, 15, 22, 26, 28, 46, 47},
    {1, 8, 18, 31, 33, 44, 45},
    {14, 19, 25, 32, 35, 36, 42},
    {2, 3, 16, 20, 31, 37, 49},
    {10, 14, 19, 32, 35, 36, 40},
    {4, 9, 15, 26, 28, 38, 48},
    {1, 2, 3, 20, 31, 39, 49},
    {10, 17, 19, 35, 36, 39, 44},
    {7, 8, 13, 22, 26, 38, 47},
    {7, 15, 22, 23, 26, 38, 50},
    {9, 15, 23, 34, 43, 47, 50},
    {2, 3, 20, 31, 37, 41, 44},
    {9, 15, 22, 23, 34, 47, 48}
];
