n = 50;
allowed = [
    {3, 23, 41},
    {7, 10, 45},
    {1, 23, 41, 49},
    {11, 33, 44},
    {9, 17, 21, 36},
    {8, 12, 29},
    {10, 37, 45},
    {6, 29, 48},
    {17, 29, 33, 36},
    {2, 30, 37},
    {4, 28, 44},
    {6, 22, 24, 29},
    {27, 32, 34},
    {26, 35, 50},
    {18, 25, 42, 49},
    {14, 26, 43},
    {5, 9, 36},
    {15, 25, 49},
    {8, 24, 46},
    {25, 37, 38, 42},
    {2, 4, 44, 49},
    {6, 12, 47},
    {1, 39, 41},
    {8, 19, 46},
    {15, 18, 49},
    {14, 35, 43},
    {13, 32, 34},
    {11, 30, 31},
    {6, 8, 12},
    {10, 31, 37},
    {10, 28, 30},
    {13, 27, 34},
    {4, 9, 36},
    {13, 27, 32, 39},
    {14, 26, 40},
    {5, 9, 17},
    {5, 7, 10, 45},
    {20, 42, 47},
    {3, 23, 41},
    {26, 35, 43},
    {1, 3, 23},
    {20, 38, 47},
    {16, 26, 40, 47},
    {4, 11, 21},
    {2, 7, 37},
    {8, 13, 19, 24},
    {12, 22, 25},
    {6, 29, 35},
    {21, 25, 44},
    {14, 16, 26}
];
