n = 30;
allowed = [
    {2, 4, 8, 12, 27, 28, 30},
    {1, 4, 6, 12, 27, 28, 30},
    {11, 13, 15, 16, 18, 22, 24},
    {1, 2, 8, 12, 14, 27, 28, 30},
    {19, 20, 21, 23, 25, 29, 30},
    {2, 3, 11, 15, 16, 17, 24, 26},
    {9, 13, 14, 17, 22, 24, 29},
    {1, 10, 12, 19, 21, 27, 28},
    {3, 7, 13, 14, 17, 20, 29},
    {1, 8, 12, 19, 21, 23, 28},
    {3, 15, 16, 23, 24, 25, 30},
    {1, 8, 10, 23, 27, 28, 30},
    {3, 7, 15, 16, 18, 22, 24},
    {5, 7, 9, 13, 17, 20, 29},
    {3, 13, 16, 18, 22, 24, 26},
    {3, 11, 13, 15, 18, 22, 24},
    {5, 7, 9, 13, 14, 20, 29},
    {3, 13, 15, 16, 22, 24, 26},
    {5, 8, 10, 12, 18, 21, 23, 25},
    {4, 5, 7, 9, 14, 17, 21, 29},
    {5, 10, 12, 19, 23, 25, 30},
    {3, 13, 15, 16, 18, 24, 26},
    {5, 10, 11, 12, 21, 25, 30},
    {2, 3, 11, 13, 15, 16, 18, 22},
    {3, 5, 11, 12, 21, 23, 30},
    {3, 6, 15, 16, 18, 22, 24},
    {1, 2, 4, 8, 12, 28, 30},
    {1, 4, 8, 10, 12, 19, 27},
    {5, 7, 9, 14, 17, 20, 21},
    {1, 11, 12, 21, 23, 25, 27}
];
