n = 100;
allowed = [
    {12, 37, 79},
    {17, 56, 100},
    {41, 47, 49},
    {36, 73, 75},
    {50, 51, 64, 91},
    {29, 67, 88},
    {14, 49, 65},
    {15, 38, 52},
    {23, 67, 91},
    {18, 32, 72},
    {19, 29, 54},
    {1, 6, 64, 91},
    {44, 65, 86},
    {7, 35, 48},
    {8, 16, 38},
    {15, 38, 58},
    {2, 56, 100},
    {10, 27, 71},
    {11, 26, 54, 73},
    {26, 63, 70},
    {58, 60, 80},
    {43, 77, 86},
    {9, 64, 91},
    {28, 32, 69},
    {27, 71, 84},
    {8, 20, 63, 70},
    {18, 25, 71},
    {24, 32, 69},
    {11, 19, 88, 94},
    {31, 42, 89},
    {30, 89, 96},
    {10, 28, 87},
    {47, 62, 69},
    {78, 83, 95},
    {9, 14, 48, 98},
    {4, 73, 75},
    {1, 12, 79},
    {8, 15, 16},
    {5, 51, 66},
    {50, 52, 93},
    {3, 47, 70},
    {30, 36, 75},
    {22, 68, 77, 87},
    {13, 14, 76},
    {58, 60, 80},
    {61, 90, 97},
    {3, 33, 41},
    {14, 35, 98},
    {3, 7, 65},
    {40, 52, 85},
    {5, 12, 91},
    {8, 40, 50, 81},
    {8, 59, 85},
    {11, 19, 89},
    {83, 92, 95, 99},
    {6, 17, 84, 88},
    {41, 43, 68, 96},
    {45, 60, 80},
    {20, 50, 53, 85},
    {17, 45, 58, 80},
    {39, 46, 90, 97},
    {31, 33, 57},
    {20, 26, 70},
    {1, 12, 91},
    {7, 14, 49, 54},
    {39, 89, 96},
    {6, 9, 88},
    {22, 43, 77},
    {24, 28, 33},
    {20, 49, 63},
    {10, 18, 27, 74},
    {10, 18, 71},
    {4, 11, 19},
    {46, 90, 97},
    {13, 36, 42, 73},
    {13, 44, 86},
    {22, 43, 68},
    {83, 95, 99},
    {1, 12, 37},
    {21, 45, 58},
    {1, 23, 61},
    {40, 74, 90, 97},
    {78, 95, 99},
    {25, 40, 89, 93},
    {50, 53, 59},
    {13, 22, 76},
    {28, 32, 92},
    {6, 56, 67},
    {29, 30, 31, 66},
    {46, 61, 97},
    {5, 51, 64},
    {18, 32, 82, 87},
    {40, 50, 52},
    {34, 68, 78, 95},
    {78, 83, 99},
    {31, 57, 66},
    {46, 74, 90},
    {14, 35, 48},
    {55, 78, 95},
    {2, 17, 34}
];
