n = 20;
allowed = [
    {4, 5, 6, 7, 8, 11, 20},
    {5, 6, 11, 12, 14, 18, 19},
    {7, 9, 10, 11, 16, 17, 20},
    {1, 6, 8, 9, 10, 13, 20},
    {1, 2, 4, 6, 11, 15, 18},
    {1, 4, 5, 7, 8, 11, 20},
    {3, 9, 10, 11, 16, 17, 20},
    {1, 4, 6, 9, 10, 13, 20},
    {4, 7, 8, 10, 13, 16, 20},
    {4, 7, 8, 9, 13, 16, 20},
    {1, 3, 6, 7, 14, 16, 17},
    {2, 5, 6, 11, 14, 18, 19},
    {1, 4, 7, 8, 9, 10, 20},
    {2, 7, 11, 12, 17, 18, 19},
    {1, 4, 5, 6, 8, 11, 13, 20},
    {3, 7, 9, 10, 11, 12, 17, 20},
    {1, 3, 7, 10, 11, 14, 16},
    {2, 5, 6, 11, 12, 14, 19},
    {2, 5, 11, 12, 14, 17, 18},
    {1, 4, 7, 8, 9, 10, 13}
];
