n = 50;
allowed = [
    {29, 43, 48},
    {17, 18, 50},
    {21, 26, 33},
    {19, 22, 36},
    {11, 14, 40},
    {13, 21, 39},
    {40, 43, 46},
    {30, 34, 41, 45},
    {15, 16, 25},
    {24, 28, 32},
    {5, 14, 24},
    {9, 17, 38, 42},
    {6, 21, 39},
    {5, 11, 17, 40},
    {23, 45, 47},
    {9, 13, 47},
    {12, 18, 42},
    {2, 17, 35},
    {4, 22, 41},
    {1, 29, 48},
    {3, 6, 39},
    {4, 19, 36},
    {30, 31, 34},
    {10, 28, 32},
    {9, 16, 27, 50},
    {3, 33, 49},
    {9, 13, 25},
    {10, 24, 33, 44},
    {1, 20, 48},
    {23, 27, 31, 34},
    {23, 30, 34},
    {10, 24, 37},
    {3, 26, 49},
    {23, 30, 31},
    {18, 42, 44},
    {4, 19, 22, 47},
    {2, 10, 24, 32},
    {20, 26, 49},
    {6, 13, 21, 41},
    {5, 7, 14},
    {4, 8, 19},
    {12, 17, 44},
    {1, 7, 40},
    {10, 28, 42},
    {23, 30, 32, 34},
    {7, 8, 22},
    {15, 31, 48},
    {1, 29, 47},
    {26, 33, 38},
    {2, 18, 46, 49}
];
