n = 100;
allowed = [
    {27, 52, 64},
    {4, 35, 78, 97},
    {15, 16, 54},
    {2, 64, 99},
    {58, 62, 63},
    {31, 60, 65},
    {47, 48, 85},
    {12, 75, 76, 81},
    {47, 50, 90},
    {56, 75, 79},
    {16, 51, 70, 91},
    {46, 75, 76, 82},
    {22, 74, 95},
    {43, 45, 83},
    {22, 24, 54},
    {3, 15, 94},
    {41, 71, 82, 83},
    {37, 70, 87},
    {4, 32, 56, 79},
    {39, 41, 82},
    {34, 42, 92},
    {15, 24, 53, 54},
    {25, 30, 71},
    {15, 22, 54},
    {13, 23, 30, 71},
    {46, 59, 68, 69},
    {1, 52, 64},
    {1, 8, 52},
    {39, 88, 96},
    {46, 72, 100},
    {6, 60, 66},
    {40, 78, 84},
    {32, 78, 81, 84},
    {21, 42, 92},
    {2, 97, 99},
    {55, 61, 93},
    {18, 32, 74, 87},
    {13, 44, 57, 95},
    {29, 88, 96},
    {32, 58, 67},
    {20, 39, 82},
    {21, 34, 83, 92},
    {14, 45, 83},
    {38, 51, 89},
    {14, 43, 80, 83},
    {30, 72, 100},
    {7, 9, 48},
    {7, 47, 85},
    {57, 73, 88, 98},
    {9, 48, 85},
    {3, 89, 91},
    {1, 27, 64},
    {29, 39, 62},
    {15, 22, 24},
    {60, 61, 68},
    {10, 75, 79},
    {49, 73, 98},
    {5, 40, 67},
    {68, 77, 94},
    {6, 31, 55},
    {55, 68, 94},
    {26, 29, 53, 96},
    {5, 21, 42},
    {1, 27, 52, 69},
    {6, 31, 66},
    {6, 31, 47, 65},
    {40, 58, 92},
    {59, 77, 94},
    {26, 59, 86},
    {18, 37, 87},
    {23, 25, 34},
    {30, 46, 56, 100},
    {49, 57, 88},
    {18, 37, 87},
    {10, 76, 79},
    {10, 75, 79, 93},
    {59, 68, 94},
    {32, 33, 84},
    {10, 56, 75},
    {19, 79, 92},
    {10, 28, 56, 75},
    {17, 20, 41},
    {14, 17, 82},
    {32, 33, 40},
    {47, 48, 50},
    {15, 70, 77},
    {18, 37, 74},
    {29, 39, 52, 96},
    {3, 44, 51},
    {9, 44, 89},
    {11, 51, 89},
    {21, 34, 42},
    {36, 72, 97},
    {16, 68, 77},
    {13, 38, 44},
    {29, 39, 88},
    {2, 35, 93},
    {14, 25, 57, 73},
    {2, 4, 35},
    {30, 46, 72}
];
