n = 50;
allowed = [
    {7, 12, 20, 26},
    {24, 25, 39},
    {8, 9, 33},
    {11, 22, 36, 50},
    {29, 30, 41, 45},
    {15, 16, 29, 44},
    {20, 24, 39},
    {3, 9, 32},
    {3, 8, 33},
    {23, 35, 48},
    {28, 37, 40},
    {1, 20, 23},
    {1, 2, 25, 47},
    {15, 16, 49},
    {14, 32, 35, 48},
    {21, 31, 49},
    {19, 27, 41},
    {28, 40, 46},
    {17, 22, 27},
    {1, 7, 12},
    {16, 31, 49},
    {4, 36, 41},
    {10, 35, 48},
    {2, 25, 39},
    {2, 13, 24},
    {10, 21, 38},
    {17, 19, 41},
    {18, 32, 46},
    {5, 6, 44},
    {2, 7, 20, 24},
    {16, 21, 34, 49},
    {3, 5, 8, 28},
    {3, 8, 9, 45},
    {42, 43, 44},
    {10, 23, 48},
    {4, 22, 50},
    {11, 32, 40},
    {10, 21, 26, 29},
    {2, 7, 24},
    {11, 14, 18, 28},
    {5, 22, 27},
    {34, 43, 47},
    {32, 34, 42},
    {6, 29, 34},
    {5, 41, 44},
    {8, 18, 28},
    {13, 42, 43},
    {10, 18, 23, 35},
    {16, 21, 31},
    {4, 22, 36}
];
