n = 100;
allowed = [
    {12, 20, 59, 73},
    {24, 25, 39, 97},
    {8, 9, 33, 51},
    {22, 36, 50, 56, 87},
    {29, 45, 61, 66, 74},
    {29, 44, 52, 95},
    {20, 24, 39, 99},
    {3, 9, 32, 51},
    {3, 8, 33, 51},
    {23, 35, 83, 88},
    {37, 60, 64, 69},
    {1, 20, 59, 88},
    {2, 25, 63, 78},
    {15, 52, 65, 90},
    {14, 48, 65, 90},
    {21, 31, 49, 65},
    {27, 58, 84, 93},
    {28, 42, 46, 51, 68},
    {17, 27, 58, 84},
    {1, 12, 59, 73},
    {16, 31, 49, 65},
    {37, 55, 87, 89, 96},
    {10, 35, 48, 83, 91},
    {2, 39, 97, 99},
    {2, 13, 24, 97},
    {38, 80, 82, 85},
    {17, 19, 74, 84},
    {18, 32, 46, 68},
    {6, 44, 61, 95},
    {20, 59, 73, 99},
    {16, 21, 49, 65},
    {28, 68, 81, 100},
    {3, 8, 9, 42, 80},
    {42, 43, 94, 98},
    {10, 23, 48, 83},
    {22, 55, 87, 96},
    {11, 62, 64, 69},
    {21, 26, 82, 85},
    {2, 7, 24, 99},
    {11, 18, 28, 38, 60},
    {53, 86, 89, 96},
    {34, 43, 47, 98},
    {34, 42, 81, 98},
    {6, 67, 72, 94},
    {5, 53, 62, 75},
    {8, 18, 28, 51},
    {13, 42, 63, 76},
    {10, 23, 35, 65},
    {16, 21, 31, 51, 65},
    {4, 36, 54, 56},
    {3, 8, 9, 46},
    {6, 14, 90, 95},
    {41, 66, 86, 89},
    {4, 33, 36, 50, 56},
    {22, 36, 87, 96},
    {36, 50, 54, 87},
    {58, 79, 91, 92},
    {17, 19, 65, 84, 92},
    {1, 12, 20, 73},
    {11, 30, 62, 64, 69},
    {5, 29, 66, 95},
    {37, 60, 64, 69},
    {13, 25, 47, 78},
    {37, 60, 62, 69},
    {14, 16, 31, 49},
    {5, 53, 61, 74},
    {44, 72, 94, 98},
    {28, 32, 81, 100},
    {11, 60, 62, 64},
    {21, 77, 91, 93},
    {60, 62, 64, 69, 70},
    {44, 67, 90, 94, 98},
    {1, 20, 30, 40, 59},
    {27, 66, 84, 93},
    {45, 55, 86, 87},
    {34, 42, 71, 90, 98},
    {58, 70, 74, 91, 93},
    {13, 25, 63, 97},
    {17, 28, 57, 91, 92},
    {26, 57, 76, 79, 92},
    {32, 43, 68, 100},
    {10, 26, 38, 85},
    {10, 23, 35, 88},
    {17, 27, 74, 93},
    {10, 26, 38, 50, 82},
    {41, 53, 83, 89, 96},
    {22, 36, 55, 96},
    {10, 12, 23, 61, 83},
    {22, 41, 86, 96},
    {14, 15, 52, 76},
    {77, 79, 92, 93},
    {17, 57, 79, 91},
    {17, 77, 84, 91},
    {44, 67, 72, 98},
    {6, 19, 29, 44, 52},
    {22, 55, 86, 89},
    {2, 24, 25, 99},
    {34, 43, 72, 94},
    {7, 24, 30, 39},
    {32, 43, 68, 81}
];
