n = 30;
allowed = [
    {2, 5, 10, 12, 24, 26},
    {4, 5, 14, 26, 27},
    {8, 11, 13, 20, 23},
    {2, 14, 25, 27, 28},
    {1, 2, 9, 10, 26},
    {12, 17, 20, 23, 29},
    {4, 14, 16, 25, 28},
    {3, 10, 11, 24, 30},
    {2, 5, 19, 21, 26},
    {1, 5, 11, 24, 26},
    {3, 8, 10, 20, 24},
    {6, 17, 18, 22, 23, 29},
    {3, 8, 11, 14, 20, 23},
    {2, 4, 19, 27, 28},
    {9, 18, 19, 21, 22},
    {7, 10, 25, 28, 30},
    {6, 12, 20, 23, 29},
    {1, 5, 9, 12, 29},
    {2, 9, 14, 22, 27},
    {3, 11, 17, 23, 24},
    {9, 15, 18, 19, 22},
    {2, 9, 14, 19, 27, 30},
    {3, 6, 11, 17, 20},
    {1, 8, 10, 11, 26},
    {4, 7, 16, 27, 28},
    {1, 2, 5, 10, 24},
    {2, 4, 14, 19, 28},
    {2, 4, 14, 25, 27},
    {6, 12, 17, 18, 23},
    {8, 10, 13, 16, 24, 25}
];
