n = 100;
allowed = [
    {11, 23, 41, 62, 71, 84},
    {24, 29, 50, 55, 56},
    {27, 58, 65, 66, 77, 81},
    {5, 8, 42, 44, 47},
    {4, 6, 42, 47, 88},
    {5, 30, 33, 80, 88},
    {14, 38, 57, 70, 87},
    {4, 21, 44, 47, 79},
    {18, 49, 54, 74, 77},
    {12, 38, 46, 57, 92},
    {1, 53, 71, 84, 100},
    {10, 38, 57, 59, 92},
    {65, 66, 80, 89, 95},
    {7, 38, 43, 83, 87},
    {23, 28, 48, 73, 97},
    {24, 34, 46, 60, 70},
    {20, 26, 53, 83, 85, 100},
    {27, 49, 74, 77, 88},
    {25, 33, 42, 51, 67, 78},
    {17, 26, 83, 86, 93},
    {8, 11, 79, 84, 96},
    {1, 41, 58, 62, 82},
    {15, 37, 52, 73, 97},
    {2, 16, 34, 60, 70},
    {29, 31, 44, 55, 75, 76},
    {20, 43, 53, 83, 86},
    {49, 66, 74, 77, 81},
    {45, 50, 55, 56, 98},
    {25, 45, 55, 64, 75},
    {6, 33, 69, 80, 85},
    {25, 32, 68, 75, 76},
    {31, 68, 76, 91, 94},
    {6, 19, 30, 51, 67},
    {16, 24, 46, 60, 70},
    {50, 52, 54, 56, 61},
    {30, 69, 80, 85, 95},
    {9, 23, 46, 49, 73, 81},
    {7, 12, 14, 57, 87},
    {12, 59, 90, 91, 92},
    {22, 62, 82, 96, 99, 100},
    {1, 58, 62, 71, 84},
    {4, 5, 47, 51, 78},
    {14, 20, 26, 83, 87},
    {4, 5, 8, 42, 47},
    {29, 43, 55, 63, 64, 98},
    {10, 12, 16, 57, 92},
    {4, 5, 8, 42, 44, 56},
    {15, 28, 63, 97, 98},
    {9, 27, 74, 77, 81},
    {2, 28, 35, 55, 56},
    {19, 33, 42, 67, 78},
    {9, 35, 54, 56, 73},
    {11, 17, 20, 26, 100},
    {9, 35, 49, 52, 61},
    {2, 25, 29, 45, 64},
    {2, 28, 35, 50, 52},
    {10, 12, 16, 38, 46, 92},
    {22, 41, 62, 71, 84, 99},
    {12, 83, 86, 90, 93},
    {2, 16, 24, 34, 48, 70},
    {35, 36, 52, 54, 56, 72},
    {1, 22, 41, 71, 82},
    {28, 45, 48, 64, 98},
    {25, 29, 45, 55, 98},
    {13, 66, 80, 89, 95},
    {13, 27, 74, 77, 89},
    {19, 33, 42, 51, 78},
    {10, 31, 32, 91, 94},
    {19, 30, 33, 36, 80, 85},
    {7, 24, 34, 60, 96},
    {1, 11, 41, 62, 84},
    {35, 60, 61, 70, 96},
    {15, 23, 37, 52, 97},
    {18, 27, 49, 77, 81},
    {16, 25, 29, 55, 76},
    {25, 29, 31, 55, 75},
    {27, 49, 66, 74, 81},
    {19, 42, 47, 51, 67},
    {3, 8, 21, 44, 47, 84},
    {13, 30, 85, 89, 95},
    {3, 27, 49, 74, 77},
    {1, 22, 40, 62, 71},
    {20, 26, 59, 86, 93},
    {1, 21, 41, 71, 79},
    {30, 36, 69, 80, 95},
    {20, 26, 59, 83, 93},
    {7, 14, 38, 43, 79, 83},
    {5, 6, 18, 66, 74},
    {13, 65, 66, 80, 95},
    {12, 39, 59, 92, 93},
    {32, 39, 68, 90, 94},
    {10, 12, 46, 57, 59},
    {20, 26, 59, 83, 86},
    {31, 32, 39, 68, 91},
    {13, 65, 66, 80, 89},
    {7, 21, 43, 70, 72},
    {15, 23, 37, 48, 73},
    {29, 45, 55, 63, 64},
    {17, 40, 53, 82, 100},
    {11, 17, 26, 53, 99}
];
