n = 100;
allowed = [
    {7, 51, 53, 89},
    {16, 29, 45, 46},
    {37, 41, 56, 62},
    {17, 20, 42, 96},
    {10, 50, 55, 94},
    {15, 18, 27, 30, 43},
    {1, 53, 68, 89},
    {63, 67, 74, 80, 81},
    {20, 72, 92, 96},
    {5, 84, 91, 94},
    {26, 31, 32, 76},
    {9, 40, 88, 92},
    {33, 81, 84, 91},
    {35, 44, 79, 87},
    {16, 29, 31, 46, 73},
    {2, 15, 46, 73},
    {4, 20, 42, 74, 75},
    {6, 21, 27, 30},
    {69, 71, 93, 100},
    {4, 9, 17, 96},
    {22, 27, 97, 99},
    {18, 21, 95, 99},
    {34, 36, 61, 66},
    {13, 33, 90, 91, 98},
    {38, 56, 58, 60, 62},
    {11, 32, 37, 61},
    {6, 18, 21, 29},
    {33, 38, 81, 84, 94},
    {2, 15, 45, 46},
    {6, 18, 55, 95},
    {11, 63, 67, 76},
    {11, 26, 76, 97},
    {13, 30, 81, 84, 91},
    {49, 54, 65, 86},
    {77, 78, 93, 100},
    {23, 37, 61, 66},
    {3, 26, 58, 61},
    {25, 56, 58, 74},
    {12, 17, 20, 75, 82},
    {12, 39, 75, 88, 94},
    {3, 34, 49, 65},
    {4, 17, 85, 96},
    {18, 47, 57, 63, 80},
    {12, 14, 79, 88},
    {1, 2, 51, 59, 66},
    {2, 16, 29, 73, 82},
    {43, 57, 63, 80},
    {1, 51, 53, 89},
    {34, 50, 54, 65, 86},
    {5, 59, 64, 95},
    {1, 45, 48, 53},
    {60, 69, 70, 93},
    {1, 7, 68, 89},
    {34, 49, 65, 86},
    {5, 10, 30, 83},
    {3, 25, 58, 62},
    {8, 45, 63, 67, 80},
    {25, 37, 56, 62},
    {15, 50, 64, 78, 95},
    {19, 52, 69, 70},
    {23, 26, 36, 37},
    {3, 41, 56, 58},
    {8, 67, 74, 80},
    {19, 59, 78, 93},
    {34, 41, 49, 54},
    {1, 36, 45, 51},
    {8, 63, 74, 80},
    {1, 7, 29, 53, 89},
    {19, 71, 93, 100},
    {47, 52, 60, 69, 93},
    {19, 69, 85, 100},
    {9, 77, 92, 96},
    {2, 15, 16, 46},
    {8, 63, 67, 80},
    {17, 20, 39, 82},
    {6, 11, 26, 31, 32},
    {35, 71, 72, 100},
    {23, 35, 64, 93, 100},
    {14, 35, 44, 87},
    {8, 63, 67, 74},
    {13, 33, 84, 90},
    {17, 20, 39, 75},
    {10, 24, 55, 73},
    {13, 33, 91, 94},
    {19, 42, 69, 71},
    {34, 49, 54, 65},
    {14, 35, 79, 99},
    {9, 12, 39, 40},
    {1, 7, 53, 68},
    {13, 33, 81, 91},
    {13, 33, 84, 94},
    {9, 20, 72, 96},
    {19, 69, 78, 100},
    {10, 33, 84, 91},
    {18, 22, 30, 50},
    {4, 9, 20, 42},
    {21, 22, 32, 99},
    {28, 49, 54, 68, 86},
    {21, 22, 87, 97},
    {19, 71, 77, 93}
];
