n = 30;
allowed = [
    {3, 6, 8, 13, 17, 18, 21},
    {3, 11, 12, 16, 17, 21, 25},
    {1, 10, 16, 17, 19, 21, 25},
    {5, 8, 11, 15, 20, 23, 28, 29},
    {4, 8, 15, 18, 23, 28, 29},
    {1, 4, 5, 8, 13, 18, 26, 28},
    {9, 14, 15, 20, 23, 24, 27},
    {1, 4, 5, 6, 13, 18, 28},
    {7, 14, 20, 22, 24, 27, 30},
    {3, 12, 16, 19, 21, 25, 30},
    {2, 12, 16, 17, 19, 25, 26},
    {2, 11, 16, 19, 25, 26, 30},
    {1, 5, 6, 8, 18, 21, 28},
    {7, 15, 20, 23, 24, 27, 29},
    {4, 5, 14, 20, 23, 28, 29},
    {3, 10, 12, 19, 21, 25, 30},
    {1, 2, 3, 10, 16, 21, 25},
    {1, 4, 5, 6, 8, 13, 28},
    {3, 10, 12, 16, 21, 25, 30},
    {4, 7, 14, 15, 23, 27, 28},
    {1, 3, 10, 16, 17, 19, 25},
    {9, 10, 16, 19, 24, 27, 30},
    {4, 5, 14, 15, 20, 28, 29},
    {7, 9, 14, 20, 22, 27, 30},
    {2, 3, 10, 12, 16, 19, 21},
    {2, 11, 12, 16, 17, 19, 25, 29},
    {7, 9, 14, 15, 20, 23, 24},
    {4, 5, 8, 15, 20, 23, 29},
    {4, 5, 14, 15, 20, 23, 28},
    {3, 10, 12, 16, 19, 22, 25}
];
