n = 20;
allowed = [
    {2, 7, 10, 14, 15, 16, 17, 18},
    {8, 11, 12, 13, 15, 19, 20},
    {4, 6, 7, 9, 16, 17, 18},
    {3, 6, 7, 9, 16, 17, 18},
    {3, 6, 7, 8, 10, 16, 17, 18},
    {3, 4, 5, 7, 16, 17, 18},
    {1, 3, 4, 9, 16, 17, 18},
    {2, 11, 12, 13, 16, 19, 20},
    {1, 3, 4, 6, 7, 17, 18},
    {1, 2, 7, 14, 15, 16, 17},
    {2, 8, 12, 13, 15, 19, 20},
    {2, 8, 11, 13, 15, 19, 20},
    {2, 7, 8, 11, 12, 15, 19, 20},
    {1, 2, 7, 10, 15, 16, 17},
    {1, 2, 11, 12, 14, 16, 19},
    {1, 5, 6, 7, 8, 15, 17},
    {1, 3, 4, 6, 7, 16, 18},
    {3, 4, 6, 7, 9, 16, 17},
    {2, 8, 11, 12, 13, 15, 20},
    {2, 8, 11, 12, 13, 16, 19}
];
