n = 20;
allowed = [
    {3, 5, 6, 9, 11, 12, 13},
    {4, 5, 6, 9, 11, 17, 19},
    {5, 7, 10, 12, 13, 14, 20},
    {2, 8, 11, 15, 16, 17, 19},
    {1, 6, 9, 11, 12, 17, 19},
    {1, 5, 9, 11, 12, 17, 19},
    {1, 3, 5, 12, 13, 14, 20},
    {4, 10, 11, 15, 16, 18, 19},
    {1, 5, 6, 11, 12, 17, 19},
    {3, 8, 15, 16, 18, 19, 20},
    {2, 4, 5, 6, 9, 17, 19},
    {1, 3, 5, 6, 9, 11, 13},
    {1, 3, 5, 7, 12, 14, 16, 20},
    {1, 3, 5, 7, 12, 13, 20},
    {4, 8, 10, 11, 16, 18, 19},
    {4, 8, 10, 11, 15, 18, 19},
    {2, 4, 5, 6, 9, 11, 19},
    {3, 8, 10, 13, 15, 16, 19, 20},
    {2, 4, 5, 6, 9, 11, 17},
    {3, 7, 10, 12, 13, 14, 18}
];
