n = 20;
allowed = [
    {3, 4, 10, 16, 17},
    {3, 5, 6, 10, 16, 20},
    {1, 5, 10, 16, 17},
    {1, 6, 7, 13, 14},
    {10, 15, 16, 17, 20},
    {4, 11, 13, 14, 18},
    {1, 4, 14, 15, 17},
    {2, 11, 12, 13, 18},
    {2, 5, 10, 18, 19, 20},
    {3, 5, 16, 17, 20},
    {6, 12, 13, 14, 18},
    {6, 8, 11, 13, 18},
    {4, 6, 11, 14, 18},
    {1, 4, 6, 7, 13},
    {1, 3, 5, 16, 17, 19},
    {1, 3, 5, 10, 17},
    {1, 3, 5, 10, 16},
    {1, 3, 8, 12, 13},
    {2, 5, 9, 10, 20},
    {2, 5, 9, 10, 16}
];
