n = 30;
allowed = [
    {8, 13, 21},
    {16, 17, 25},
    {10, 16, 21},
    {5, 15, 28},
    {4, 15, 28},
    {8, 13, 18, 22},
    {14, 24, 27},
    {6, 13, 18},
    {7, 24, 27},
    {3, 16, 19},
    {2, 12, 26},
    {19, 25, 26},
    {6, 8, 18},
    {7, 24, 27},
    {20, 23, 28},
    {3, 10, 19},
    {1, 2, 21},
    {6, 8, 13},
    {10, 16, 25},
    {15, 23, 28},
    {1, 3, 10},
    {9, 19, 30},
    {15, 20, 28},
    {7, 9, 27, 30},
    {12, 16, 19},
    {11, 12, 25},
    {7, 14, 24},
    {3, 4, 15, 23},
    {4, 15, 28},
    {16, 19, 22, 29}
];
