n = 30;
allowed = [
    {2, 3, 6, 7, 15, 16, 18, 23, 27, 29},
    {1, 6, 7, 15, 16, 18, 23, 27, 29, 30},
    {1, 2, 7, 11, 21, 23, 25, 26, 27, 29},
    {5, 9, 11, 12, 14, 17, 19, 20, 21, 22, 30},
    {6, 10, 13, 15, 18, 22, 24, 27, 28, 30},
    {2, 5, 15, 16, 18, 21, 22, 27, 29, 30},
    {1, 2, 3, 6, 15, 16, 18, 23, 27, 29},
    {3, 9, 11, 12, 14, 21, 22, 23, 25, 26},
    {4, 11, 12, 14, 17, 19, 20, 21, 22, 30},
    {5, 6, 13, 15, 16, 18, 22, 24, 28, 30},
    {3, 8, 14, 18, 21, 22, 23, 25, 26, 27},
    {4, 8, 9, 11, 14, 17, 19, 20, 21, 22},
    {5, 6, 10, 15, 16, 18, 22, 24, 28, 30},
    {4, 9, 11, 12, 19, 20, 21, 22, 26, 27},
    {2, 5, 6, 16, 18, 21, 22, 27, 29, 30},
    {1, 2, 5, 6, 7, 15, 18, 27, 29, 30},
    {4, 5, 9, 12, 14, 19, 20, 21, 22, 30},
    {2, 5, 6, 15, 16, 21, 22, 27, 29, 30},
    {4, 5, 9, 10, 12, 14, 17, 20, 22, 28},
    {4, 9, 11, 12, 14, 17, 19, 21, 22, 30},
    {2, 6, 14, 15, 18, 22, 26, 27, 29, 30},
    {5, 6, 10, 14, 15, 18, 21, 27, 29, 30},
    {1, 2, 3, 7, 11, 21, 25, 26, 27, 29},
    {5, 6, 10, 13, 15, 16, 18, 28, 29, 30},
    {1, 3, 7, 8, 11, 21, 23, 26, 27, 29},
    {3, 11, 14, 18, 21, 22, 23, 25, 27, 29},
    {2, 6, 15, 16, 18, 21, 22, 26, 29, 30},
    {5, 6, 9, 10, 13, 15, 18, 19, 22, 24, 30},
    {1, 2, 6, 7, 15, 16, 18, 21, 27, 30},
    {5, 6, 10, 15, 16, 18, 21, 22, 27, 29}
];
