n = 100;
allowed = [
    {2, 4, 8, 12, 27, 28, 46, 52, 64, 76},
    {1, 4, 27, 35, 64, 65, 66, 93, 97, 99},
    {15, 16, 22, 24, 44, 51, 54, 89, 91, 94},
    {1, 2, 27, 28, 35, 52, 64, 93, 97, 99},
    {21, 34, 40, 42, 49, 58, 62, 63, 67, 92},
    {26, 31, 55, 59, 60, 61, 65, 66, 68, 77, 99},
    {9, 17, 38, 44, 47, 48, 50, 85, 90, 95},
    {10, 12, 28, 52, 56, 75, 76, 79, 80, 81},
    {7, 38, 44, 47, 48, 50, 57, 73, 85, 90},
    {8, 12, 19, 56, 75, 76, 79, 80, 81, 92},
    {3, 16, 30, 36, 51, 61, 72, 91, 93, 94},
    {8, 10, 30, 46, 52, 75, 76, 79, 80, 100},
    {18, 22, 24, 37, 38, 44, 54, 74, 87, 95},
    {17, 20, 41, 43, 45, 48, 50, 82, 83, 85},
    {3, 16, 22, 24, 37, 54, 74, 77, 86, 94},
    {3, 11, 15, 22, 24, 51, 54, 68, 77, 94},
    {14, 20, 39, 41, 43, 48, 50, 82, 83, 85},
    {13, 15, 22, 24, 37, 54, 70, 74, 86, 87},
    {10, 32, 40, 56, 67, 75, 78, 79, 80, 92},
    {17, 29, 39, 41, 43, 53, 82, 83, 88, 96},
    {5, 23, 25, 34, 42, 63, 67, 71, 80, 92},
    {3, 13, 15, 18, 24, 37, 54, 74, 86, 87},
    {21, 25, 30, 34, 42, 46, 71, 72, 98, 100},
    {3, 13, 15, 16, 22, 37, 54, 74, 86, 89},
    {21, 23, 30, 34, 42, 46, 71, 72, 92, 98, 100},
    {15, 59, 60, 61, 68, 69, 70, 77, 86, 94},
    {1, 2, 4, 8, 12, 28, 46, 52, 64, 93},
    {1, 8, 10, 12, 27, 52, 64, 75, 76, 81},
    {20, 39, 41, 49, 53, 62, 73, 82, 88, 96},
    {12, 23, 25, 34, 46, 71, 72, 93, 98, 100},
    {6, 36, 55, 59, 60, 61, 65, 66, 68, 97},
    {19, 33, 40, 56, 58, 67, 78, 79, 80, 84},
    {19, 32, 40, 56, 58, 67, 78, 79, 80, 84},
    {5, 21, 23, 25, 42, 63, 67, 71, 80, 92},
    {2, 4, 27, 31, 36, 65, 66, 93, 97, 99},
    {11, 55, 61, 65, 66, 72, 93, 94, 97, 100},
    {13, 15, 18, 22, 24, 54, 70, 74, 86, 87},
    {7, 9, 13, 24, 44, 47, 48, 89, 90, 95},
    {17, 20, 29, 41, 49, 53, 62, 82, 88, 96},
    {5, 19, 32, 33, 58, 67, 78, 80, 84, 92},
    {17, 20, 29, 39, 49, 50, 82, 83, 88, 96},
    {5, 21, 23, 25, 34, 63, 67, 71, 80, 92},
    {14, 17, 20, 41, 45, 48, 50, 82, 83, 85},
    {3, 13, 22, 24, 38, 51, 54, 89, 90, 95},
    {14, 17, 20, 41, 43, 48, 50, 82, 83, 84, 85},
    {12, 23, 25, 30, 34, 42, 71, 72, 93, 100},
    {7, 9, 17, 38, 44, 48, 50, 85, 90, 95},
    {7, 9, 14, 17, 38, 47, 50, 83, 85, 90},
    {29, 39, 41, 57, 62, 63, 73, 88, 96, 98},
    {7, 9, 17, 41, 47, 48, 73, 83, 85, 88},
    {3, 11, 15, 16, 24, 38, 44, 54, 89, 90, 91},
    {1, 4, 8, 12, 27, 28, 46, 64, 76, 100},
    {5, 20, 29, 39, 41, 49, 62, 63, 88, 96},
    {3, 13, 15, 16, 22, 24, 37, 44, 51, 89},
    {6, 31, 36, 59, 60, 61, 65, 68, 77, 94},
    {8, 10, 19, 32, 75, 76, 78, 79, 80, 81},
    {9, 29, 49, 50, 62, 73, 88, 90, 96, 98},
    {5, 21, 32, 40, 42, 62, 63, 67, 84, 92},
    {6, 16, 26, 55, 60, 61, 68, 77, 86, 94},
    {6, 26, 31, 55, 59, 61, 65, 66, 68, 77},
    {6, 31, 36, 55, 59, 60, 65, 68, 77, 94},
    {5, 29, 39, 41, 49, 53, 63, 73, 88, 96},
    {5, 21, 34, 42, 49, 58, 62, 67, 92, 98},
    {1, 2, 4, 8, 12, 27, 28, 52, 97, 99},
    {6, 31, 35, 36, 55, 60, 61, 66, 93, 97},
    {2, 6, 31, 35, 36, 55, 60, 61, 65, 97},
    {5, 19, 21, 32, 40, 42, 58, 63, 80, 92},
    {15, 16, 26, 55, 59, 60, 61, 77, 86, 94},
    {15, 18, 26, 59, 60, 68, 70, 77, 86, 94},
    {13, 15, 18, 22, 24, 37, 54, 74, 86, 87},
    {21, 23, 25, 30, 34, 42, 46, 92, 98, 100},
    {11, 23, 25, 30, 36, 46, 71, 91, 93, 100},
    {9, 26, 29, 49, 50, 57, 62, 88, 90, 96, 98},
    {13, 15, 18, 22, 24, 37, 54, 70, 86, 87},
    {8, 10, 12, 19, 56, 76, 79, 80, 81, 92},
    {8, 10, 12, 19, 56, 75, 79, 80, 81, 92},
    {3, 15, 16, 26, 55, 59, 61, 68, 86, 94},
    {10, 19, 32, 33, 40, 56, 58, 67, 79, 84},
    {8, 10, 12, 19, 56, 75, 76, 80, 81, 92},
    {19, 21, 34, 42, 56, 67, 75, 76, 79, 92},
    {8, 10, 12, 19, 23, 28, 56, 75, 76, 79, 80},
    {17, 20, 29, 39, 41, 43, 50, 83, 88, 96},
    {14, 17, 20, 41, 43, 45, 48, 50, 82, 85},
    {5, 19, 32, 33, 40, 56, 58, 67, 78, 80},
    {7, 9, 14, 17, 47, 48, 50, 82, 83, 90},
    {15, 18, 22, 24, 26, 37, 54, 70, 74, 77},
    {13, 15, 18, 22, 24, 30, 37, 54, 70, 74, 86},
    {29, 39, 41, 49, 50, 57, 62, 73, 82, 96},
    {3, 13, 22, 24, 38, 44, 51, 54, 90, 95},
    {7, 9, 38, 44, 47, 48, 50, 57, 73, 89},
    {3, 11, 16, 25, 44, 51, 72, 89, 90, 98},
    {2, 5, 19, 21, 34, 42, 63, 67, 71, 79, 80},
    {11, 30, 36, 46, 55, 61, 65, 72, 97, 100},
    {3, 15, 16, 54, 55, 59, 61, 68, 77, 86},
    {7, 13, 22, 24, 37, 38, 44, 54, 74, 89},
    {20, 29, 39, 41, 49, 53, 62, 73, 82, 88},
    {2, 4, 27, 31, 35, 36, 55, 65, 66, 93},
    {21, 23, 25, 34, 42, 49, 57, 63, 71, 73},
    {1, 2, 4, 27, 35, 52, 64, 65, 66, 82, 97},
    {11, 12, 23, 25, 30, 36, 46, 71, 72, 93}
];
