n = 30;
allowed = [
    {4, 5, 6, 11, 20, 21, 22, 26, 27, 29},
    {11, 12, 14, 18, 19, 21, 22, 23, 26, 30},
    {7, 9, 10, 11, 16, 17, 21, 26, 28, 29},
    {1, 6, 7, 8, 9, 10, 11, 13, 20, 29},
    {1, 6, 11, 21, 22, 24, 25, 27, 29, 30},
    {1, 4, 5, 11, 21, 22, 24, 27, 29, 30},
    {3, 10, 11, 16, 17, 20, 21, 26, 28, 29},
    {1, 4, 6, 7, 9, 10, 13, 16, 20, 29},
    {1, 3, 4, 7, 8, 10, 13, 16, 20, 29},
    {3, 4, 7, 8, 9, 13, 16, 17, 20, 29},
    {1, 3, 7, 16, 17, 21, 22, 26, 28, 29},
    {2, 5, 14, 18, 19, 21, 22, 23, 26, 30},
    {1, 3, 4, 7, 8, 9, 10, 16, 20, 29},
    {1, 2, 11, 12, 18, 19, 21, 22, 23, 26, 28},
    {1, 4, 5, 6, 12, 22, 24, 25, 27, 29, 30},
    {3, 7, 10, 11, 17, 20, 21, 26, 28, 29},
    {3, 7, 10, 11, 16, 21, 23, 26, 28, 29},
    {2, 11, 12, 14, 19, 21, 22, 23, 26, 30},
    {2, 11, 12, 14, 18, 21, 22, 23, 26, 30},
    {1, 4, 6, 7, 8, 9, 10, 13, 16, 29},
    {1, 6, 7, 11, 16, 17, 18, 22, 26, 29},
    {1, 5, 6, 11, 18, 21, 26, 27, 29, 30},
    {2, 11, 12, 14, 17, 18, 19, 21, 26, 28},
    {1, 4, 5, 6, 8, 15, 22, 25, 27, 30},
    {1, 2, 5, 6, 15, 18, 22, 24, 27, 30},
    {1, 7, 11, 14, 16, 17, 21, 22, 28, 29},
    {1, 5, 6, 15, 21, 22, 24, 25, 29, 30},
    {3, 7, 11, 14, 16, 17, 21, 23, 26, 29},
    {1, 4, 6, 7, 11, 16, 17, 21, 22, 26},
    {1, 2, 5, 6, 18, 21, 22, 25, 27, 29}
];
