n = 20;
allowed = [
    {2, 3, 4, 6, 11, 12, 13, 14, 15, 20},
    {1, 3, 4, 6, 7, 12, 13, 14, 15, 20},
    {1, 2, 4, 9, 10, 13, 14, 15, 16, 19},
    {1, 2, 3, 5, 9, 11, 13, 14, 15, 20},
    {1, 2, 3, 4, 6, 11, 13, 15, 17, 20},
    {1, 2, 5, 7, 11, 12, 13, 15, 17, 20},
    {1, 2, 3, 6, 10, 12, 13, 15, 17, 19},
    {1, 2, 3, 4, 9, 10, 14, 16, 18, 19},
    {1, 2, 3, 4, 5, 8, 11, 13, 14, 15, 16},
    {1, 2, 3, 7, 8, 12, 15, 16, 18, 19},
    {1, 2, 3, 4, 5, 6, 13, 14, 15, 20},
    {1, 2, 6, 7, 10, 13, 15, 17, 19, 20},
    {1, 2, 3, 4, 5, 6, 11, 15, 17, 20},
    {1, 2, 3, 4, 5, 9, 11, 13, 15, 16},
    {1, 2, 3, 4, 5, 6, 11, 12, 13, 20},
    {1, 2, 3, 4, 8, 9, 10, 14, 18, 19},
    {1, 2, 5, 6, 7, 11, 12, 13, 15, 20},
    {1, 2, 3, 7, 8, 10, 12, 14, 16, 19},
    {1, 2, 3, 7, 8, 10, 12, 15, 16, 18},
    {1, 2, 4, 5, 6, 11, 12, 13, 15, 17}
];
