n = 100;
allowed = [
    {3, 16, 17, 19},
    {27, 28, 52},
    {1, 16, 17},
    {39, 50, 82, 83},
    {53, 67, 85, 90},
    {31, 33, 66},
    {65, 78, 98},
    {12, 35, 73},
    {19, 25, 75, 94},
    {76, 92, 96},
    {34, 54, 77},
    {60, 71, 73},
    {33, 40, 46},
    {39, 49, 83, 84},
    {74, 89, 97},
    {3, 17, 92},
    {3, 16, 81},
    {21, 64, 77, 100},
    {9, 25, 94},
    {44, 59, 85},
    {40, 46, 56},
    {48, 54, 56},
    {24, 47, 95},
    {23, 27, 47},
    {41, 55, 94},
    {33, 66, 70},
    {2, 28, 52},
    {2, 3, 27, 52},
    {49, 93, 99},
    {35, 47, 95},
    {6, 33, 39},
    {25, 41, 55},
    {6, 13, 51, 66},
    {11, 54, 77},
    {30, 47, 69},
    {1, 3, 91},
    {38, 62, 65, 80},
    {29, 49, 93},
    {14, 31, 72},
    {13, 43, 46, 56},
    {25, 32, 55},
    {63, 74, 82},
    {4, 39, 72},
    {20, 59, 63, 90},
    {58, 61, 78, 87},
    {13, 40, 56},
    {4, 23, 30, 95},
    {22, 56, 60},
    {29, 83, 93},
    {4, 38, 62},
    {1, 18, 36, 43},
    {2, 27, 28},
    {5, 15, 67},
    {13, 46, 48, 56},
    {22, 25, 41, 88},
    {21, 46, 54},
    {7, 79, 84, 86},
    {42, 45, 82},
    {44, 75, 90},
    {12, 48, 71},
    {45, 58, 78},
    {37, 50, 65},
    {37, 42, 62},
    {68, 91, 100},
    {37, 38, 62},
    {26, 33, 70},
    {5, 15, 53},
    {64, 91, 100},
    {30, 35, 47},
    {6, 26, 66},
    {8, 12, 60, 73},
    {31, 39, 43},
    {12, 71, 100},
    {15, 26, 42, 97},
    {32, 34, 44, 59},
    {10, 92, 96},
    {11, 34, 54, 98},
    {7, 45, 61},
    {57, 84, 86},
    {29, 93, 99},
    {16, 17, 88, 89},
    {42, 58, 74},
    {29, 49, 67, 99},
    {57, 79, 86},
    {10, 20, 96},
    {57, 79, 84},
    {5, 50, 62, 89},
    {25, 55, 94},
    {15, 81, 97},
    {27, 44, 59},
    {36, 64, 68},
    {3, 10, 16},
    {29, 38, 49, 100},
    {9, 25, 41},
    {23, 47, 91},
    {10, 76, 85},
    {15, 74, 89},
    {7, 37, 65, 78},
    {29, 49, 80},
    {18, 64, 73}
];
