n = 50;
allowed = [
    {11, 15, 25, 36, 46},
    {5, 9, 13, 39, 49},
    {4, 16, 24, 26, 48},
    {3, 16, 24, 26, 48},
    {2, 9, 13, 22, 41},
    {18, 23, 38, 42, 47},
    {17, 21, 33, 34, 50},
    {7, 12, 33, 34, 50},
    {2, 5, 13, 22, 41},
    {21, 23, 28, 31, 34},
    {1, 15, 25, 36, 46},
    {7, 8, 33, 34, 50},
    {2, 5, 9, 22, 41},
    {25, 32, 36, 43, 46},
    {1, 11, 25, 36, 46},
    {3, 4, 26, 31, 48},
    {7, 27, 33, 35, 40},
    {6, 23, 39, 45, 47},
    {1, 11, 13, 36, 41},
    {6, 28, 37, 38, 42, 45},
    {10, 16, 26, 31, 34},
    {5, 9, 13, 29, 30},
    {6, 10, 26, 31, 47},
    {3, 4, 16, 19, 26, 48},
    {1, 11, 15, 36, 46},
    {3, 16, 31, 47, 48},
    {15, 17, 32, 40, 46},
    {10, 21, 23, 34, 37},
    {9, 13, 22, 30, 41},
    {2, 5, 9, 22, 29},
    {10, 21, 23, 26, 47},
    {14, 15, 27, 43, 46},
    {7, 17, 21, 34, 50},
    {10, 12, 21, 28, 50},
    {7, 17, 20, 27, 33, 40},
    {1, 11, 15, 25, 46, 47},
    {10, 23, 28, 34, 42, 43},
    {6, 18, 20, 42, 45},
    {2, 5, 9, 18, 49},
    {15, 16, 17, 27, 48},
    {5, 9, 13, 19, 22},
    {6, 20, 23, 37, 38},
    {14, 15, 27, 32, 46},
    {2, 18, 37, 39, 45, 49},
    {6, 18, 39, 44, 49},
    {1, 11, 15, 25, 36},
    {6, 8, 18, 23, 26, 31},
    {3, 4, 16, 24, 26},
    {2, 18, 39, 44, 45},
    {7, 12, 21, 33, 34, 35}
];
