n = 50;
allowed = [
    {3, 8, 9, 19, 20, 21, 24, 30, 36, 42},
    {6, 7, 10, 11, 12, 15, 16, 32, 39, 47},
    {1, 5, 9, 19, 20, 21, 24, 36, 38, 42},
    {6, 10, 12, 18, 31, 33, 34, 41, 45, 48},
    {14, 21, 24, 25, 27, 31, 37, 38, 42, 50},
    {4, 10, 12, 16, 18, 33, 39, 41, 44, 45},
    {4, 5, 10, 12, 14, 25, 32, 37, 39, 45},
    {1, 17, 19, 20, 21, 24, 26, 27, 30, 40},
    {3, 19, 24, 29, 31, 34, 35, 36, 38, 42},
    {4, 6, 7, 12, 16, 18, 27, 32, 37, 39, 45},
    {2, 3, 6, 7, 10, 12, 15, 16, 32, 39, 47},
    {4, 6, 7, 10, 16, 25, 32, 37, 39, 45},
    {17, 22, 26, 27, 28, 30, 40, 46, 49, 50},
    {5, 7, 12, 24, 25, 27, 31, 37, 38, 50},
    {2, 6, 7, 10, 11, 12, 16, 32, 39, 41},
    {2, 6, 7, 10, 11, 12, 15, 32, 39, 41},
    {8, 13, 20, 22, 26, 27, 28, 30, 40, 50},
    {4, 6, 10, 33, 34, 41, 43, 44, 45, 48},
    {1, 3, 8, 9, 20, 21, 24, 36, 38, 42},
    {1, 3, 8, 17, 19, 21, 24, 30, 40, 42},
    {3, 5, 8, 19, 20, 24, 30, 36, 38, 42},
    {13, 17, 26, 27, 28, 30, 40, 46, 49, 50},
    {4, 18, 29, 33, 34, 35, 43, 44, 45, 48},
    {3, 5, 9, 19, 20, 21, 31, 36, 38, 42},
    {5, 7, 10, 12, 14, 27, 31, 37, 38, 50},
    {8, 13, 17, 20, 22, 27, 28, 30, 40, 48, 50},
    {5, 13, 17, 20, 22, 26, 28, 30, 40, 50},
    {13, 17, 22, 26, 27, 30, 40, 46, 49, 50},
    {4, 9, 11, 31, 34, 35, 36, 38, 42, 43, 48},
    {8, 13, 17, 20, 21, 22, 26, 27, 28, 40},
    {4, 5, 9, 14, 24, 29, 35, 37, 38, 45},
    {2, 7, 10, 12, 15, 16, 25, 37, 39, 47},
    {4, 6, 18, 34, 35, 41, 43, 44, 45, 48},
    {4, 18, 23, 29, 33, 35, 43, 44, 45, 48},
    {4, 9, 23, 29, 31, 33, 34, 43, 45, 48},
    {1, 3, 9, 19, 20, 21, 24, 29, 31, 42},
    {4, 5, 7, 10, 12, 14, 25, 31, 38, 50},
    {3, 5, 14, 21, 24, 25, 31, 37, 42, 50},
    {2, 6, 7, 10, 11, 12, 15, 16, 32, 41},
    {8, 13, 17, 20, 22, 26, 27, 28, 30, 50},
    {4, 6, 10, 12, 16, 18, 33, 44, 45, 48},
    {3, 5, 9, 19, 20, 21, 24, 31, 36, 38},
    {4, 18, 23, 29, 33, 34, 35, 44, 45, 48},
    {4, 6, 18, 23, 33, 34, 41, 43, 45, 48},
    {4, 6, 10, 12, 18, 31, 33, 41, 44, 48},
    {13, 17, 22, 26, 27, 28, 30, 40, 49, 50},
    {7, 12, 14, 25, 32, 37, 39, 46, 49, 50},
    {4, 18, 23, 29, 33, 34, 35, 43, 44, 45},
    {13, 17, 22, 26, 27, 28, 30, 40, 46, 50},
    {5, 13, 14, 25, 26, 27, 28, 30, 37, 40}
];
