n = 30;
allowed = [
    {4, 27, 28},
    {1, 4, 6, 27},
    {7, 15, 16, 24},
    {1, 2, 27},
    {21, 25, 29},
    {2, 16, 26},
    {9, 14, 17},
    {10, 12, 28},
    {7, 11, 17, 29},
    {8, 12, 19},
    {3, 14, 16, 30},
    {8, 10, 30},
    {18, 22, 24},
    {7, 17, 20},
    {3, 22, 24},
    {3, 15, 24},
    {14, 20, 29},
    {3, 13, 22, 24},
    {8, 10, 21},
    {14, 17, 29},
    {5, 23, 25},
    {13, 15, 24, 26},
    {21, 25, 30},
    {13, 15, 22},
    {21, 23, 30},
    {6, 15, 18},
    {1, 4, 28},
    {1, 8, 27},
    {5, 17, 20},
    {12, 23, 25}
];
