n = 50;
allowed = [
    {11, 15, 19, 24, 25, 27, 32, 36, 40, 43, 46},
    {5, 9, 13, 22, 29, 30, 39, 41, 45, 49},
    {4, 16, 18, 23, 24, 26, 31, 40, 47, 48},
    {3, 16, 18, 23, 24, 26, 31, 39, 47, 48},
    {2, 9, 13, 22, 24, 29, 30, 39, 41, 49},
    {4, 18, 23, 26, 31, 37, 38, 42, 45, 47},
    {10, 12, 16, 17, 21, 31, 33, 34, 35, 50},
    {7, 10, 12, 17, 21, 28, 33, 34, 35, 50},
    {2, 5, 13, 19, 22, 29, 30, 39, 41, 49},
    {16, 21, 23, 26, 28, 31, 34, 37, 47, 50},
    {1, 15, 19, 24, 25, 27, 32, 36, 40, 46},
    {7, 8, 10, 17, 21, 28, 33, 34, 37, 50},
    {2, 5, 9, 19, 22, 24, 29, 30, 39, 41},
    {1, 11, 15, 25, 27, 32, 36, 40, 43, 46},
    {1, 11, 19, 25, 27, 32, 36, 40, 43, 46},
    {3, 4, 10, 21, 24, 26, 31, 40, 47, 48},
    {7, 16, 21, 26, 27, 33, 35, 40, 48, 50},
    {3, 4, 6, 23, 26, 31, 39, 42, 45, 47},
    {1, 5, 9, 11, 13, 15, 25, 36, 41, 46},
    {6, 18, 23, 28, 37, 38, 42, 44, 45, 47},
    {7, 10, 16, 26, 28, 31, 33, 34, 48, 50},
    {2, 5, 9, 13, 19, 29, 30, 39, 41, 49},
    {3, 6, 10, 18, 21, 26, 28, 31, 37, 47},
    {3, 4, 16, 18, 26, 31, 39, 40, 47, 48},
    {1, 11, 14, 15, 19, 27, 32, 36, 43, 46},
    {3, 4, 10, 16, 21, 23, 24, 31, 47, 48},
    {1, 11, 15, 17, 25, 32, 35, 36, 40, 46},
    {10, 21, 23, 26, 31, 34, 37, 42, 47, 50},
    {2, 5, 9, 13, 19, 22, 30, 39, 41, 49},
    {2, 5, 9, 13, 22, 29, 39, 41, 44, 49},
    {3, 4, 10, 16, 21, 23, 26, 28, 47, 48},
    {1, 11, 14, 15, 25, 27, 36, 40, 43, 46},
    {7, 10, 12, 16, 17, 21, 31, 34, 35, 50},
    {7, 8, 10, 12, 21, 25, 28, 31, 33, 37, 50},
    {7, 8, 12, 17, 21, 27, 32, 33, 40, 50},
    {1, 11, 15, 19, 25, 27, 32, 40, 43, 46},
    {6, 10, 21, 23, 26, 28, 31, 34, 42, 47},
    {6, 18, 20, 23, 28, 37, 42, 44, 45, 47},
    {2, 3, 4, 5, 9, 13, 18, 24, 45, 49},
    {1, 3, 11, 15, 16, 17, 24, 27, 46, 48},
    {2, 5, 9, 13, 19, 22, 24, 29, 30, 39},
    {6, 10, 18, 20, 23, 28, 31, 37, 38, 47},
    {1, 11, 14, 15, 25, 27, 32, 36, 40, 42, 46},
    {2, 5, 6, 9, 18, 30, 38, 39, 45, 49},
    {2, 6, 18, 23, 28, 38, 39, 42, 44, 47, 49},
    {1, 11, 15, 19, 25, 27, 32, 36, 40, 43},
    {3, 4, 6, 10, 16, 18, 23, 26, 31, 48},
    {3, 4, 8, 16, 21, 23, 24, 26, 31, 40, 47},
    {2, 5, 9, 13, 18, 22, 30, 39, 44, 45},
    {7, 8, 10, 12, 17, 21, 28, 31, 33, 34}
];
