n = 100;
allowed = [
    {12, 37, 64, 79},
    {17, 34, 56, 66, 100},
    {41, 47, 49, 68, 98},
    {3, 19, 36, 73, 75},
    {39, 51, 64, 91},
    {29, 56, 67, 88},
    {14, 35, 49, 65},
    {15, 38, 50, 52},
    {23, 64, 67, 91},
    {18, 32, 71, 72},
    {19, 29, 54, 73},
    {1, 51, 64, 91},
    {16, 44, 65, 76, 86},
    {7, 35, 48, 52, 65},
    {8, 16, 38, 52, 55},
    {15, 38, 58, 80},
    {2, 56, 88, 100},
    {10, 27, 32, 71},
    {11, 39, 54, 73, 75},
    {26, 35, 63, 70},
    {38, 58, 60, 80},
    {43, 68, 77, 86},
    {9, 61, 64, 89, 91},
    {4, 28, 32, 69, 87},
    {18, 27, 71, 84, 85},
    {20, 41, 50, 63, 70},
    {10, 18, 25, 71},
    {24, 32, 69, 87},
    {11, 19, 54, 88},
    {31, 42, 66, 89},
    {30, 62, 89, 96},
    {10, 18, 24, 28, 87},
    {24, 47, 62, 69},
    {78, 83, 94, 95},
    {7, 14, 48, 98},
    {4, 42, 73, 75},
    {1, 12, 79, 81},
    {8, 15, 16, 21},
    {5, 51, 66, 77},
    {8, 50, 52, 93},
    {3, 47, 63, 70},
    {30, 36, 54, 75},
    {22, 57, 68, 77},
    {13, 14, 65, 76},
    {21, 58, 60, 80},
    {61, 74, 90, 97},
    {3, 33, 41, 57},
    {7, 14, 35, 98},
    {3, 7, 65, 70},
    {8, 40, 52, 85},
    {5, 12, 64, 91},
    {8, 40, 50, 93},
    {8, 17, 50, 59, 85},
    {11, 19, 75, 89},
    {78, 83, 84, 95, 99},
    {6, 17, 67, 88, 100},
    {43, 62, 68, 96},
    {21, 45, 60, 80, 97},
    {8, 50, 53, 85},
    {21, 45, 58, 80},
    {46, 74, 90, 97},
    {31, 33, 57, 96},
    {20, 26, 41, 70},
    {1, 12, 51, 91, 99},
    {7, 13, 14, 49},
    {31, 39, 89, 92, 96},
    {5, 6, 9, 88},
    {22, 43, 57, 77},
    {24, 28, 33, 41},
    {20, 41, 49, 63},
    {10, 18, 27, 72},
    {10, 18, 27, 71, 76},
    {4, 11, 19, 75},
    {46, 82, 90, 97},
    {19, 36, 42, 73},
    {13, 22, 44, 86},
    {22, 39, 43, 47, 68},
    {83, 94, 95, 99},
    {1, 12, 37, 64},
    {21, 45, 58, 60},
    {1, 9, 23, 61},
    {46, 74, 90, 97},
    {55, 78, 95, 99},
    {25, 27, 40, 93},
    {8, 50, 53, 59},
    {13, 22, 44, 76},
    {24, 28, 32, 92},
    {6, 29, 56, 67},
    {30, 31, 54, 66},
    {23, 46, 61, 74, 97},
    {5, 12, 51, 64},
    {18, 27, 32, 87},
    {8, 27, 40, 50, 52},
    {34, 78, 86, 95, 99},
    {34, 78, 83, 99},
    {31, 57, 62, 66},
    {46, 74, 82, 90},
    {7, 14, 35, 48, 68},
    {55, 78, 83, 95},
    {2, 17, 34, 83}
];
