n = 30;
allowed = [
    {2, 3, 10, 16, 23, 30},
    {7, 10, 23, 27, 30},
    {1, 2, 10, 23, 28},
    {5, 9, 11, 17, 21},
    {4, 9, 15, 17, 21},
    {8, 12, 19, 22, 29},
    {2, 10, 14, 16, 30},
    {6, 12, 13, 24, 29},
    {4, 5, 15, 17, 21},
    {2, 7, 23, 28, 30},
    {4, 16, 20, 21, 28, 30},
    {6, 8, 22, 26, 29},
    {6, 8, 24, 27, 29},
    {7, 16, 26, 27, 30},
    {5, 9, 18, 21, 25},
    {7, 10, 14, 25, 26, 30},
    {4, 5, 8, 9, 15, 21},
    {5, 15, 20, 21, 25},
    {6, 8, 12, 24, 29},
    {12, 15, 18, 22, 25, 29},
    {4, 9, 15, 18, 25},
    {6, 8, 11, 12, 26, 29},
    {1, 2, 3, 10, 30},
    {6, 8, 13, 19, 29},
    {15, 18, 20, 21, 22},
    {7, 14, 16, 27, 30},
    {2, 7, 13, 14, 26},
    {7, 10, 11, 23, 30},
    {6, 8, 12, 19, 22},
    {2, 7, 10, 16, 28}
];
