n = 100;
allowed = [
    {19, 35, 42, 44, 46, 57, 76},
    {23, 25, 59, 64, 83, 85, 95},
    {55, 66, 73, 74, 77, 88, 94},
    {5, 6, 9, 20, 30, 39, 97},
    {4, 6, 40, 70, 72, 82, 97},
    {4, 5, 31, 62, 65, 70, 72, 97},
    {28, 34, 40, 45, 82, 84, 96},
    {6, 10, 18, 33, 54, 58, 71, 90},
    {4, 5, 30, 31, 36, 39, 92, 100},
    {18, 49, 52, 58, 89, 93, 99},
    {33, 37, 66, 71, 76, 80, 86},
    {14, 32, 62, 63, 68, 81, 98},
    {29, 33, 50, 60, 75, 80, 99},
    {12, 15, 32, 68, 81, 87, 98},
    {14, 25, 51, 81, 83, 87, 98},
    {1, 17, 19, 26, 35, 47, 56},
    {16, 19, 26, 42, 46, 48, 56},
    {8, 10, 49, 52, 54, 58, 90},
    {1, 17, 35, 42, 46, 56, 57},
    {4, 6, 30, 39, 41, 69, 97},
    {22, 41, 43, 51, 53, 78, 87},
    {21, 43, 51, 53, 78, 87, 91, 92},
    {2, 25, 54, 59, 64, 85, 95},
    {10, 49, 52, 61, 84, 93, 99},
    {2, 23, 59, 64, 70, 72, 83},
    {1, 16, 17, 19, 35, 46, 56},
    {12, 53, 63, 67, 81, 91, 98},
    {7, 24, 38, 45, 82, 84, 96},
    {13, 50, 60, 75, 78, 80, 93, 99},
    {4, 9, 20, 39, 92, 97, 100},
    {49, 54, 58, 65, 70, 72, 89},
    {12, 14, 15, 68, 79, 83, 98},
    {8, 11, 71, 75, 80, 86, 90},
    {7, 28, 36, 40, 82, 96, 100},
    {1, 19, 42, 44, 57, 76, 79},
    {9, 30, 34, 39, 92, 96, 100},
    {2, 11, 44, 57, 76, 85, 95},
    {7, 24, 28, 45, 61, 84, 93},
    {4, 9, 20, 30, 69, 92, 100},
    {5, 7, 34, 69, 82, 96, 97, 100},
    {4, 20, 21, 30, 39, 69, 78},
    {1, 19, 35, 46, 48, 56, 77},
    {21, 22, 51, 53, 78, 87, 91},
    {35, 37, 57, 68, 76, 79, 85},
    {7, 24, 28, 38, 46, 61, 84, 96},
    {1, 17, 42, 48, 56, 77, 94},
    {12, 14, 32, 38, 62, 68, 79, 98},
    {1, 40, 42, 46, 56, 66, 77, 94},
    {10, 18, 52, 58, 61, 89, 99},
    {13, 29, 55, 60, 75, 80, 99},
    {15, 21, 43, 53, 78, 87, 91},
    {10, 18, 49, 61, 89, 93, 99},
    {21, 22, 43, 51, 81, 87, 91},
    {8, 18, 49, 58, 59, 71, 90},
    {3, 66, 73, 74, 80, 86, 88},
    {1, 17, 19, 26, 42, 46, 48},
    {1, 35, 37, 44, 76, 79, 85},
    {8, 18, 49, 52, 54, 89, 90},
    {2, 23, 25, 54, 64, 71, 95},
    {13, 29, 50, 55, 73, 75, 80},
    {24, 49, 52, 84, 89, 93, 99},
    {12, 14, 32, 47, 63, 81, 98},
    {12, 14, 26, 27, 53, 81, 91, 98},
    {2, 23, 25, 59, 70, 72, 83},
    {5, 6, 31, 70, 72, 89, 97},
    {3, 11, 74, 77, 86, 88, 94},
    {22, 27, 43, 53, 63, 81, 91},
    {2, 32, 44, 57, 79, 83, 85},
    {4, 9, 20, 30, 39, 41, 60, 78},
    {5, 6, 31, 64, 65, 72, 97},
    {8, 33, 54, 58, 59, 90, 95},
    {5, 6, 31, 64, 65, 70, 97},
    {3, 55, 66, 74, 86, 88, 94},
    {3, 55, 66, 73, 77, 88, 94},
    {10, 13, 18, 29, 33, 80, 99},
    {1, 35, 37, 44, 57, 79, 85},
    {42, 46, 48, 66, 74, 76, 94},
    {21, 22, 41, 43, 51, 53, 69},
    {32, 35, 44, 57, 68, 76, 85, 93},
    {11, 13, 29, 33, 55, 75, 86},
    {12, 14, 27, 63, 87, 91, 98},
    {5, 7, 28, 34, 40, 96, 100},
    {2, 23, 25, 32, 64, 68, 85},
    {24, 28, 38, 45, 61, 93, 99},
    {2, 23, 37, 44, 68, 76, 95},
    {11, 33, 55, 66, 77, 80, 88},
    {14, 15, 21, 51, 53, 81, 91},
    {3, 55, 66, 73, 74, 83, 86, 94},
    {10, 18, 31, 49, 52, 58, 61},
    {8, 10, 18, 33, 54, 58, 71},
    {22, 27, 43, 51, 53, 63, 81},
    {4, 9, 30, 34, 36, 39, 100},
    {10, 24, 27, 49, 52, 61, 84, 99},
    {3, 42, 48, 66, 74, 77, 88},
    {2, 23, 37, 54, 59, 71, 85},
    {7, 28, 34, 40, 45, 82, 100},
    {4, 5, 6, 30, 65, 70, 72},
    {12, 14, 15, 32, 62, 68, 81},
    {10, 18, 24, 49, 52, 61, 93},
    {5, 9, 30, 34, 40, 82, 92}
];
