n = 30;
allowed = [
    {8, 19, 20},
    {11, 15, 16, 23},
    {12, 19, 21, 24},
    {6, 12, 18},
    {14, 15, 24, 25},
    {4, 10, 18},
    {10, 12, 25},
    {20, 21, 28, 30},
    {3, 19, 29},
    {6, 7, 12},
    {2, 15, 16},
    {6, 7, 10},
    {22, 26, 28},
    {5, 7, 25},
    {2, 11, 16},
    {10, 12, 15},
    {22, 26, 30},
    {4, 6, 10, 27},
    {3, 21, 24},
    {8, 21, 30},
    {3, 20, 24},
    {13, 26, 28},
    {4, 18, 24, 29},
    {3, 19, 21},
    {5, 7, 14},
    {9, 17, 27, 30},
    {13, 26, 30},
    {2, 13, 22, 26},
    {1, 3, 4, 9},
    {17, 26, 27}
];
