n = 100;
allowed = [
    {3, 16, 17, 36, 51, 87, 92},
    {23, 24, 27, 28, 52, 59, 90},
    {1, 10, 16, 17, 36, 81, 92},
    {38, 39, 43, 49, 50, 72, 83},
    {10, 53, 57, 67, 81, 84, 85},
    {13, 31, 33, 39, 66, 70, 72},
    {37, 61, 63, 65, 78, 93, 98},
    {12, 30, 35, 64, 68, 71, 73, 90},
    {19, 25, 41, 55, 86, 88, 94},
    {3, 16, 17, 76, 85, 92, 96},
    {13, 22, 34, 48, 54, 56, 57, 77},
    {8, 18, 48, 60, 71, 73, 100},
    {6, 33, 40, 46, 54, 56, 66},
    {4, 29, 31, 39, 49, 83, 99},
    {42, 53, 67, 74, 81, 89, 97},
    {1, 3, 10, 17, 81, 87, 92},
    {1, 3, 16, 81, 87, 89, 92},
    {21, 51, 60, 64, 68, 73, 100},
    {9, 25, 41, 55, 86, 88, 94},
    {32, 44, 55, 59, 75, 85, 90},
    {13, 18, 40, 46, 48, 54, 56},
    {11, 48, 54, 56, 60, 71, 77},
    {2, 24, 27, 30, 47, 77, 91, 95},
    {2, 23, 27, 28, 30, 47, 95},
    {9, 19, 32, 41, 55, 88, 94},
    {6, 31, 33, 34, 54, 66, 70},
    {2, 23, 24, 28, 52, 59, 90},
    {2, 23, 24, 27, 52, 69, 90},
    {38, 49, 80, 83, 93, 98, 99},
    {23, 24, 35, 47, 68, 69, 95},
    {6, 13, 33, 39, 66, 70, 72},
    {20, 25, 41, 55, 75, 88, 94},
    {6, 13, 31, 40, 46, 66, 70},
    {11, 22, 26, 33, 54, 66, 77},
    {8, 24, 30, 47, 68, 69, 95},
    {1, 3, 64, 68, 91, 92, 95},
    {7, 38, 50, 62, 63, 65, 98},
    {29, 37, 49, 65, 80, 93, 99},
    {4, 6, 14, 31, 43, 72, 83},
    {13, 21, 33, 46, 54, 56, 72},
    {9, 25, 32, 55, 75, 88, 94},
    {15, 58, 63, 74, 82, 89, 97},
    {4, 6, 31, 39, 40, 46, 72},
    {20, 32, 59, 75, 85, 90, 96},
    {7, 42, 58, 61, 63, 78, 82},
    {13, 21, 33, 40, 54, 56, 72},
    {23, 24, 30, 35, 68, 91, 95},
    {11, 21, 22, 54, 56, 60, 71},
    {4, 29, 38, 80, 83, 93, 99},
    {4, 37, 38, 49, 62, 65, 87},
    {1, 3, 4, 18, 36, 43, 50},
    {2, 24, 27, 28, 59, 75, 90},
    {5, 15, 67, 79, 81, 84, 97},
    {13, 33, 34, 40, 46, 56, 77},
    {20, 25, 32, 41, 86, 88, 94},
    {13, 21, 22, 40, 46, 48, 54},
    {5, 53, 67, 79, 84, 86, 88},
    {7, 42, 45, 61, 63, 74, 82},
    {2, 20, 26, 27, 44, 52, 75, 90},
    {12, 21, 22, 48, 71, 73, 100},
    {7, 37, 45, 51, 58, 63, 78, 98},
    {37, 38, 50, 63, 65, 87, 98},
    {37, 42, 58, 62, 65, 74, 89},
    {18, 36, 68, 73, 91, 95, 100},
    {7, 37, 38, 62, 63, 93, 98},
    {6, 13, 26, 31, 33, 54, 70},
    {5, 15, 53, 79, 81, 89, 97},
    {18, 30, 36, 64, 73, 91, 95, 100},
    {2, 23, 24, 28, 30, 35, 47},
    {6, 13, 26, 31, 33, 39, 66},
    {12, 21, 22, 48, 60, 73, 100},
    {6, 13, 31, 39, 40, 43, 46},
    {8, 12, 60, 64, 68, 71, 100},
    {15, 42, 58, 63, 82, 89, 97},
    {20, 32, 41, 44, 52, 59, 90},
    {10, 16, 44, 85, 90, 92, 96},
    {11, 22, 34, 48, 54, 56, 66},
    {7, 37, 45, 58, 61, 65, 98},
    {5, 53, 57, 67, 84, 86, 88},
    {29, 38, 49, 83, 93, 98, 99},
    {15, 16, 17, 67, 87, 89, 97},
    {12, 15, 42, 45, 58, 63, 74, 97},
    {14, 29, 38, 49, 80, 93, 99},
    {5, 53, 57, 67, 79, 86, 88},
    {5, 10, 20, 44, 59, 76, 96},
    {9, 25, 55, 57, 79, 84, 88, 94},
    {1, 17, 37, 50, 62, 81, 89},
    {9, 25, 32, 41, 55, 86, 94},
    {15, 17, 42, 74, 81, 87, 97},
    {2, 20, 27, 44, 52, 59, 96},
    {23, 30, 36, 47, 64, 68, 95},
    {1, 3, 10, 16, 17, 76, 96},
    {29, 38, 49, 80, 83, 98, 99},
    {9, 19, 25, 32, 41, 55, 82, 88},
    {23, 24, 30, 47, 64, 68, 91},
    {10, 44, 59, 76, 85, 90, 92},
    {15, 42, 53, 67, 74, 81, 89},
    {7, 29, 37, 38, 65, 80, 93},
    {14, 29, 38, 49, 80, 83, 93},
    {18, 21, 60, 64, 68, 71, 73}
];
