n = 30;
allowed = [
    {2, 5, 17, 23, 24},
    {1, 10, 17, 23, 24},
    {8, 11, 19, 22, 28},
    {1, 2, 17, 18, 23, 24},
    {1, 13, 20, 23, 24},
    {7, 12, 14, 21, 30},
    {6, 12, 14, 21, 30},
    {3, 11, 19, 22, 28},
    {10, 15, 16, 25, 26},
    {2, 9, 17, 18, 25},
    {3, 8, 19, 22, 28},
    {6, 7, 14, 21, 30},
    {3, 5, 8, 11, 20, 25},
    {6, 7, 12, 21, 30},
    {9, 16, 25, 26, 29},
    {9, 15, 25, 26, 29},
    {2, 10, 14, 18, 24, 25},
    {9, 10, 17, 25, 26},
    {3, 8, 11, 22, 28},
    {1, 5, 13, 23, 24},
    {4, 6, 7, 12, 14, 30},
    {3, 8, 11, 20, 23, 28},
    {2, 8, 22, 24, 28},
    {1, 2, 10, 17, 23},
    {9, 15, 16, 18, 26},
    {2, 9, 15, 16, 25, 29},
    {9, 15, 16, 26, 29},
    {3, 8, 11, 19, 22},
    {9, 15, 16, 26, 27},
    {6, 7, 12, 14, 21}
];
