n = 50;
allowed = [
    {2, 4, 8, 12, 27, 28, 46},
    {1, 4, 6, 27, 31, 35, 36},
    {11, 13, 15, 16, 22, 24, 44},
    {1, 2, 12, 27, 28, 35, 36},
    {21, 29, 34, 39, 40, 42, 49},
    {2, 11, 16, 26, 31, 35, 36},
    {9, 17, 38, 44, 47, 48, 50},
    {1, 10, 12, 19, 27, 28, 46},
    {7, 17, 38, 44, 47, 48, 50},
    {8, 12, 19, 28, 32, 34, 42},
    {3, 15, 16, 25, 30, 36, 44},
    {8, 10, 23, 27, 28, 30, 46},
    {15, 18, 22, 24, 37, 38, 44},
    {17, 20, 41, 43, 45, 48, 50},
    {3, 13, 16, 18, 22, 24, 37},
    {3, 11, 15, 22, 24, 37, 44},
    {14, 20, 39, 41, 43, 48, 50},
    {3, 13, 15, 16, 22, 24, 37},
    {10, 21, 32, 33, 34, 40, 42},
    {14, 17, 29, 39, 41, 43, 50},
    {5, 23, 25, 30, 34, 42, 46},
    {3, 13, 15, 16, 18, 24, 37},
    {12, 21, 25, 30, 34, 42, 46},
    {3, 13, 15, 16, 18, 22, 37},
    {2, 11, 21, 23, 30, 34, 42, 46},
    {6, 15, 16, 18, 22, 31, 37},
    {1, 2, 4, 8, 12, 28, 46},
    {1, 4, 8, 10, 12, 27, 35, 46},
    {5, 17, 20, 39, 41, 49, 50},
    {11, 12, 21, 23, 25, 34, 46},
    {2, 6, 11, 16, 26, 33, 35, 36},
    {5, 10, 19, 21, 33, 40, 42},
    {5, 10, 19, 20, 21, 32, 40, 42},
    {5, 21, 23, 25, 30, 42, 46},
    {1, 2, 4, 6, 27, 31, 36},
    {6, 11, 16, 30, 31, 35, 46},
    {3, 13, 15, 18, 22, 24, 38},
    {1, 7, 9, 13, 24, 44, 47, 48},
    {5, 17, 20, 29, 41, 46, 49, 50},
    {5, 19, 21, 32, 33, 34, 42},
    {17, 20, 29, 39, 43, 49, 50},
    {5, 19, 21, 23, 25, 34, 40},
    {14, 17, 20, 41, 45, 48, 50},
    {3, 9, 13, 15, 22, 24, 38},
    {14, 17, 20, 41, 43, 48, 50},
    {12, 21, 23, 25, 30, 34, 42},
    {7, 9, 17, 38, 44, 48, 50},
    {7, 9, 14, 17, 38, 47, 50},
    {5, 9, 17, 29, 39, 41, 50},
    {7, 9, 17, 29, 41, 47, 48}
];
