n = 50;
allowed = [
    {26, 41, 46},
    {4, 27, 49},
    {11, 35, 42},
    {2, 27, 45},
    {1, 26, 41},
    {17, 29, 50},
    {16, 21, 25, 28},
    {36, 42, 44},
    {31, 39, 47},
    {1, 24, 36},
    {24, 35, 48},
    {29, 32, 38},
    {3, 28, 35, 42},
    {4, 12, 27, 45},
    {21, 33, 40},
    {25, 30, 44},
    {6, 16, 23, 50},
    {13, 32, 37, 43},
    {22, 34, 49},
    {23, 35, 50},
    {15, 27, 33, 39},
    {8, 19, 34, 49},
    {17, 20, 35},
    {10, 36, 48, 50},
    {7, 16, 28},
    {1, 5, 41},
    {4, 14, 45},
    {4, 14, 25},
    {6, 12, 38},
    {16, 36, 44, 45},
    {9, 34, 36, 49},
    {18, 37, 43},
    {15, 21, 22},
    {19, 31, 49},
    {6, 11, 20, 23},
    {10, 24, 44},
    {18, 39, 47},
    {12, 29, 32, 40},
    {9, 31, 37},
    {18, 21, 43},
    {1, 5, 26, 33},
    {3, 8, 44},
    {18, 32, 37},
    {8, 30, 36},
    {4, 14, 27},
    {1, 26, 39, 47},
    {37, 39, 46},
    {1, 10, 24},
    {2, 31, 34},
    {17, 20, 23}
];
