n = 100;
allowed = [
    {20, 24, 66, 69, 75},
    {24, 58, 69, 80},
    {11, 39, 44, 60},
    {35, 47, 59, 72, 93},
    {55, 73, 85, 99},
    {21, 53, 56, 81},
    {14, 32, 78, 81},
    {3, 19, 28, 46, 76},
    {15, 16, 25, 26},
    {17, 52, 54, 72},
    {2, 3, 39, 60, 76},
    {32, 51, 86, 98},
    {8, 33, 43, 82, 100},
    {7, 53, 78, 81},
    {9, 16, 26, 97},
    {15, 26, 65, 97},
    {10, 18, 37, 54, 74},
    {25, 42, 48, 95},
    {38, 71, 79, 92},
    {5, 82, 85, 88},
    {6, 53, 56, 81},
    {31, 40, 62, 67},
    {50, 61, 67, 91},
    {2, 58, 69, 80},
    {7, 9, 26, 42, 65},
    {9, 15, 16, 65},
    {29, 34, 41, 94},
    {8, 31, 46, 76},
    {27, 34, 41, 94},
    {14, 32, 53, 56},
    {8, 28, 74, 85, 89},
    {7, 12, 30, 84, 86},
    {13, 43, 82, 100},
    {27, 29, 41, 94},
    {4, 47, 59, 93},
    {33, 43, 73, 83},
    {2, 17, 54, 80},
    {19, 71, 79, 92},
    {3, 11, 44, 60},
    {22, 62, 87, 89},
    {27, 29, 34, 94, 96},
    {18, 25, 65, 95},
    {13, 33, 82, 100},
    {3, 39, 57, 60},
    {66, 70, 75, 99},
    {3, 8, 28, 83},
    {4, 35, 59, 93},
    {17, 18, 37, 95},
    {21, 78, 81, 87},
    {2, 58, 69, 91},
    {12, 52, 61, 98},
    {10, 50, 51, 72},
    {6, 21, 30, 56},
    {2, 10, 17, 80},
    {5, 77, 85, 99},
    {6, 21, 30, 47, 53},
    {3, 39, 44, 60},
    {2, 24, 50, 69},
    {1, 4, 35, 75},
    {3, 11, 39, 44},
    {23, 51, 62, 98},
    {22, 40, 61, 67},
    {15, 72, 86, 97},
    {20, 36, 82, 88, 100},
    {9, 15, 16, 26, 66},
    {1, 45, 70, 75},
    {22, 23, 40, 62},
    {70, 73, 77, 99},
    {2, 24, 58, 80},
    {68, 77, 90, 99},
    {11, 18, 19, 38, 76},
    {10, 52, 54, 63},
    {5, 55, 68, 77},
    {31, 79, 87, 89},
    {1, 45, 66, 70},
    {8, 11, 28, 60},
    {17, 68, 70, 90, 99},
    {7, 14, 49, 81},
    {19, 74, 92, 96},
    {2, 24, 58, 69, 78},
    {7, 14, 49, 78},
    {13, 33, 43, 100},
    {8, 34, 36, 46, 67},
    {15, 16, 29, 97, 98},
    {5, 20, 55, 88},
    {12, 30, 32, 63},
    {40, 49, 78, 89},
    {20, 45, 55, 64, 85},
    {31, 40, 74, 87},
    {70, 77, 91, 99},
    {23, 50, 68, 90},
    {19, 38, 79, 96},
    {4, 35, 47, 48},
    {27, 29, 34, 41},
    {17, 18, 42, 48},
    {19, 42, 74, 79, 92},
    {15, 16, 63, 84},
    {12, 51, 52, 61, 76},
    {55, 68, 70, 77},
    {13, 33, 43, 82}
];
