n = 30;
allowed = [
    {7, 16, 20, 29},
    {12, 17, 18, 26},
    {6, 13, 21, 26},
    {8, 19, 22, 30},
    {11, 12, 14, 20},
    {3, 13, 19, 21, 26},
    {1, 5, 14, 17, 29},
    {19, 22, 23, 30},
    {15, 16, 25, 27},
    {11, 12, 24, 28},
    {5, 10, 14, 24},
    {5, 11, 17, 28},
    {6, 16, 21, 27},
    {5, 10, 11, 24},
    {9, 16, 23, 30},
    {9, 13, 15, 25},
    {2, 12, 18, 28},
    {2, 12, 17, 23, 28},
    {4, 8, 22, 30},
    {1, 5, 12, 29},
    {3, 6, 13, 26},
    {2, 4, 8, 19, 30},
    {1, 6, 8, 15, 30},
    {10, 11, 14, 28},
    {9, 15, 16, 27},
    {3, 6, 13, 21},
    {5, 9, 13, 16, 25},
    {10, 11, 12, 21, 24},
    {1, 5, 16, 20},
    {8, 15, 19, 23}
];
