n = 30;
allowed = [
    {3, 8, 19, 20, 21, 24, 30},
    {6, 7, 10, 11, 12, 15, 16},
    {1, 5, 9, 19, 20, 21, 24},
    {6, 7, 10, 12, 14, 18, 29},
    {3, 7, 14, 21, 24, 25, 27},
    {4, 7, 10, 12, 15, 16, 18},
    {4, 5, 10, 12, 14, 16, 25},
    {1, 17, 19, 20, 21, 26, 30},
    {3, 4, 5, 16, 19, 21, 24, 29},
    {4, 6, 7, 12, 16, 18, 25},
    {2, 6, 7, 10, 12, 15, 16},
    {4, 6, 7, 10, 14, 16, 25},
    {10, 17, 20, 22, 26, 27, 28, 30},
    {4, 5, 7, 12, 24, 25, 27},
    {2, 6, 7, 10, 11, 12, 16, 23},
    {2, 6, 7, 10, 11, 12, 15},
    {8, 13, 22, 26, 27, 28, 30},
    {4, 6, 7, 10, 12, 16, 23},
    {1, 3, 8, 9, 20, 21, 24},
    {1, 3, 8, 19, 21, 24, 30},
    {3, 5, 8, 19, 20, 24, 30},
    {8, 13, 17, 26, 27, 28, 30},
    {4, 6, 9, 10, 12, 18, 24, 29},
    {3, 5, 9, 14, 19, 20, 21},
    {4, 5, 7, 10, 12, 14, 27},
    {8, 13, 17, 22, 27, 28, 30},
    {13, 17, 20, 22, 26, 28, 30},
    {13, 14, 17, 22, 26, 27, 30},
    {3, 4, 5, 9, 19, 23, 24},
    {8, 13, 17, 20, 26, 27, 28}
];
