n = 50;
allowed = [
    {18, 31, 39, 44},
    {3, 20, 28, 31, 41},
    {2, 20, 31, 41},
    {9, 25, 28, 43},
    {16, 27, 31, 41},
    {11, 12, 21, 30},
    {22, 26, 38, 46},
    {1, 18, 33, 39},
    {15, 34, 43, 48},
    {17, 19, 35, 45},
    {6, 12, 13, 29},
    {5, 6, 11, 13, 29},
    {7, 11, 12, 29},
    {25, 32, 40, 42},
    {22, 26, 47, 48},
    {2, 5, 37, 41},
    {9, 10, 19, 35, 45},
    {1, 8, 33, 39},
    {10, 17, 35, 45},
    {2, 3, 44, 49},
    {6, 11, 12, 27},
    {7, 15, 21, 26, 47},
    {15, 34, 48, 50},
    {28, 33, 36, 39, 40},
    {14, 32, 36, 40},
    {7, 22, 38, 47},
    {5, 8, 21, 30, 46},
    {24, 26, 33, 38},
    {6, 11, 12, 13},
    {6, 11, 12, 29, 36},
    {2, 3, 20, 41},
    {14, 22, 25, 40, 42},
    {8, 18, 24, 28},
    {9, 23, 48, 50},
    {10, 17, 19, 42},
    {10, 24, 32, 40},
    {2, 3, 15, 16, 41},
    {7, 26, 28, 47},
    {1, 8, 18, 44},
    {14, 25, 32, 36},
    {2, 3, 20, 31},
    {14, 19, 32, 35},
    {4, 9, 15, 48},
    {3, 20, 31, 49},
    {10, 17, 19, 35},
    {7, 13, 26, 38},
    {7, 15, 22, 26},
    {9, 23, 34, 50},
    {2, 3, 20, 44},
    {15, 23, 34, 40, 48}
];
