n = 20;
allowed = [
    {5, 7, 8, 9, 15, 16, 20},
    {3, 10, 11, 12, 17, 18, 20},
    {2, 6, 13, 16, 17, 18, 20},
    {1, 5, 7, 8, 15, 16, 19},
    {1, 7, 10, 11, 12, 14, 20},
    {1, 3, 9, 13, 15, 16, 20},
    {1, 4, 5, 8, 11, 14, 20},
    {1, 4, 7, 15, 16, 19, 20},
    {1, 3, 6, 13, 15, 16, 20},
    {2, 5, 11, 12, 14, 17, 18},
    {5, 7, 10, 12, 14, 17, 20},
    {2, 5, 10, 11, 17, 18, 20},
    {1, 3, 6, 9, 15, 16, 20},
    {5, 7, 10, 11, 12, 17, 20},
    {1, 8, 9, 13, 16, 19, 20},
    {1, 3, 6, 9, 13, 15, 20},
    {2, 5, 10, 11, 12, 18, 20},
    {2, 3, 10, 11, 12, 17, 20},
    {1, 4, 7, 8, 9, 15, 16},
    {1, 5, 7, 12, 13, 16, 17}
];
