n = 30;
allowed = [
    {4, 8, 12, 27, 28},
    {1, 4, 6, 27, 28},
    {11, 15, 16, 22, 24},
    {1, 2, 12, 14, 27, 28},
    {19, 21, 23, 25, 29},
    {2, 11, 15, 16, 26},
    {9, 13, 14, 17, 29},
    {1, 10, 12, 19, 28},
    {7, 13, 14, 17, 29},
    {1, 8, 12, 19, 21, 28},
    {3, 15, 16, 25, 30},
    {8, 10, 27, 28, 30},
    {3, 15, 18, 22, 24},
    {7, 9, 17, 20, 29},
    {2, 3, 13, 16, 22, 24},
    {3, 11, 15, 22, 24},
    {7, 9, 14, 20, 29},
    {3, 7, 13, 15, 22, 24},
    {5, 8, 10, 12, 21},
    {7, 9, 10, 14, 17, 29},
    {5, 19, 23, 25, 30},
    {3, 13, 15, 18, 24},
    {11, 12, 21, 25, 30},
    {3, 13, 15, 16, 22},
    {11, 12, 21, 23, 30},
    {6, 15, 16, 18, 22},
    {1, 2, 4, 12, 28},
    {1, 8, 10, 12, 27},
    {5, 9, 14, 17, 20},
    {11, 12, 16, 21, 23, 25}
];
