n = 30;
allowed = [
    {7, 20, 29},
    {12, 17, 18},
    {6, 21, 26},
    {8, 19, 22},
    {11, 12, 14},
    {3, 13, 21},
    {1, 5, 14},
    {19, 23, 30},
    {15, 16, 25},
    {11, 24, 28},
    {5, 10, 14, 24},
    {11, 17, 28},
    {6, 16, 21},
    {5, 11, 24},
    {9, 16, 23},
    {9, 13, 15},
    {2, 12, 18},
    {2, 12, 17, 20},
    {4, 8, 22},
    {1, 5, 19, 29},
    {3, 6, 26},
    {4, 8, 19},
    {8, 15, 30},
    {10, 11, 28},
    {9, 16, 27},
    {3, 6, 21, 29},
    {9, 13, 25},
    {10, 11, 12, 24},
    {1, 16, 20},
    {8, 15, 23}
];
