n = 20;
allowed = [
    {2, 3, 7, 10, 11, 14, 16},
    {1, 3, 7, 10, 13, 14, 16},
    {1, 2, 7, 10, 11, 14, 16},
    {5, 7, 9, 11, 15, 16, 17},
    {4, 9, 11, 15, 16, 17, 18},
    {7, 8, 12, 13, 14, 16, 19},
    {1, 2, 10, 11, 13, 14, 16},
    {6, 7, 12, 13, 14, 16, 19},
    {4, 5, 11, 15, 16, 17, 18},
    {1, 2, 3, 7, 11, 14, 16},
    {2, 4, 7, 9, 10, 14, 16},
    {6, 8, 13, 14, 16, 19, 20},
    {2, 6, 7, 8, 10, 14, 16},
    {2, 6, 7, 8, 10, 13, 16},
    {4, 5, 9, 16, 17, 18, 20},
    {2, 4, 7, 10, 11, 13, 14},
    {4, 5, 9, 11, 15, 16, 18},
    {1, 4, 5, 9, 12, 15, 17, 20},
    {6, 7, 8, 12, 13, 14, 16},
    {5, 6, 9, 12, 15, 17, 18}
];
