n = 30;
allowed = [
    {5, 6, 9, 12, 13, 22, 23},
    {4, 6, 9, 11, 16, 17, 19, 29},
    {7, 13, 14, 20, 22, 24, 26},
    {2, 11, 17, 19, 21, 29, 30},
    {1, 6, 9, 11, 12, 23, 29},
    {5, 9, 11, 14, 17, 19, 23, 29},
    {2, 3, 13, 14, 20, 22, 24, 26},
    {10, 15, 16, 18, 21, 25, 27},
    {1, 5, 6, 11, 12, 23, 29},
    {8, 18, 24, 25, 27, 28, 30},
    {4, 5, 6, 17, 19, 29, 30},
    {1, 5, 6, 9, 22, 23, 29},
    {3, 7, 12, 14, 20, 22, 26},
    {3, 7, 13, 20, 22, 24, 26},
    {1, 4, 8, 16, 18, 21, 25, 27},
    {4, 8, 15, 19, 21, 25, 27},
    {2, 4, 6, 9, 11, 19, 29},
    {8, 10, 24, 25, 27, 28, 30},
    {4, 5, 6, 11, 17, 29, 30},
    {3, 7, 13, 14, 24, 26, 28},
    {4, 8, 11, 15, 16, 19, 30},
    {1, 3, 5, 7, 12, 13, 14},
    {1, 5, 6, 9, 12, 22, 29},
    {3, 10, 18, 25, 26, 27, 28},
    {8, 10, 15, 18, 24, 27, 28},
    {3, 7, 13, 14, 20, 24, 28},
    {8, 10, 15, 18, 24, 25, 28},
    {3, 10, 18, 24, 25, 26, 27},
    {5, 6, 9, 11, 17, 19, 30},
    {3, 4, 5, 10, 11, 19, 29}
];
