n = 100;
allowed = [
    {6, 55, 60, 81, 98},
    {14, 18, 19, 61, 92},
    {16, 37, 39, 46, 90},
    {20, 34, 52, 58, 87},
    {27, 63, 71, 73, 88},
    {1, 60, 67, 81, 98},
    {16, 33, 39, 96, 99},
    {13, 20, 43, 64, 97},
    {13, 20, 31, 64, 74},
    {9, 35, 36, 49, 74},
    {21, 26, 72, 79, 84},
    {2, 19, 57, 61, 94},
    {8, 9, 31, 43, 64},
    {18, 23, 51, 78, 91},
    {45, 50, 68, 75, 76, 94},
    {7, 39, 90, 96, 99},
    {16, 28, 37, 40, 93},
    {2, 14, 19, 61, 91},
    {2, 12, 14, 18, 61},
    {4, 8, 9, 43, 64},
    {11, 26, 29, 32, 72},
    {5, 67, 79, 81, 83, 92},
    {14, 44, 48, 51, 78},
    {45, 68, 70, 76, 100},
    {24, 53, 71, 75, 80, 88},
    {11, 21, 72, 79, 95},
    {5, 6, 63, 73, 88},
    {17, 37, 40, 46, 86},
    {11, 21, 32, 38, 54},
    {53, 69, 71, 73, 83},
    {9, 13, 20, 64, 74},
    {1, 21, 29, 38, 55},
    {7, 54, 84, 96, 99},
    {4, 52, 85, 87, 98},
    {39, 49, 82, 90, 99},
    {4, 10, 20, 85, 87},
    {3, 16, 17, 28, 46},
    {1, 29, 55, 85, 87},
    {3, 7, 16, 35, 90},
    {17, 28, 62, 84, 93},
    {42, 65, 66, 70, 77, 100},
    {41, 66, 70, 77, 100},
    {8, 13, 56, 64, 97},
    {62, 65, 78, 91, 95},
    {24, 68, 70, 76, 100},
    {3, 16, 17, 28, 37},
    {30, 32, 61, 69, 83, 92},
    {23, 44, 62, 78, 86},
    {10, 35, 74, 82, 90},
    {15, 45, 68, 75, 76},
    {14, 18, 23, 78, 91},
    {4, 34, 58, 85, 87},
    {30, 71, 73, 80, 88},
    {7, 33, 47, 82, 96, 99},
    {1, 60, 67, 81, 98},
    {8, 43, 58, 59, 97},
    {12, 47, 61, 89, 94},
    {4, 52, 56, 59, 97},
    {8, 43, 56, 58, 97},
    {1, 6, 55, 81, 98},
    {2, 18, 19, 47, 92},
    {40, 44, 56, 79, 93, 95},
    {5, 6, 27, 73, 88},
    {8, 13, 20, 43, 97},
    {44, 62, 72, 79, 91, 95},
    {41, 42, 56, 59, 70},
    {1, 6, 55, 60, 81, 92},
    {15, 45, 50, 75, 76},
    {30, 47, 73, 83, 92},
    {24, 41, 42, 77, 100},
    {5, 30, 53, 73, 78, 88},
    {11, 21, 26, 54, 79, 95},
    {5, 27, 30, 71, 88},
    {9, 10, 31, 36, 49},
    {15, 25, 68, 76, 80},
    {15, 45, 50, 68, 75},
    {6, 60, 70, 80, 98, 100},
    {14, 23, 44, 51, 91},
    {11, 26, 62, 72, 95},
    {25, 53, 71, 75, 88},
    {1, 6, 55, 60, 67},
    {7, 35, 39, 54, 99},
    {22, 30, 47, 69, 92},
    {11, 33, 93, 96, 99},
    {4, 34, 38, 52, 87},
    {28, 37, 40, 48, 62},
    {4, 34, 38, 52, 85},
    {5, 27, 53, 63, 71},
    {30, 47, 57, 69, 83},
    {3, 16, 35, 39, 82},
    {14, 44, 65, 78, 95},
    {22, 47, 61, 69, 83},
    {17, 33, 40, 62, 84},
    {2, 12, 19, 57, 61, 66},
    {26, 62, 65, 72, 79},
    {7, 16, 33, 84, 99},
    {8, 43, 56, 58, 59, 100},
    {1, 6, 55, 60, 81},
    {7, 16, 33, 82, 96},
    {42, 45, 63, 70, 77}
];
