n = 30;
allowed = [
    {2, 3, 8, 18, 20},
    {1, 3, 5, 16, 20},
    {1, 2, 16, 18, 20},
    {9, 15, 16, 24, 25, 28},
    {1, 2, 3, 16, 24, 27},
    {11, 12, 17, 21, 29, 30},
    {13, 15, 22, 26, 28},
    {1, 18, 24, 27, 28},
    {4, 15, 22, 23, 26},
    {14, 17, 18, 19, 24},
    {6, 12, 13, 21, 29},
    {6, 11, 13, 21, 29},
    {7, 11, 12, 22, 29},
    {10, 17, 19, 24, 25},
    {7, 9, 22, 23, 26},
    {1, 2, 3, 5, 20},
    {10, 14, 18, 19, 24},
    {1, 3, 8, 24, 28},
    {10, 14, 17, 24, 25},
    {1, 2, 3, 16, 18},
    {6, 11, 12, 27, 30},
    {7, 13, 15, 23, 26},
    {2, 7, 9, 15, 22, 26},
    {4, 8, 18, 26, 28},
    {4, 10, 14, 19, 24},
    {7, 15, 22, 24, 28},
    {1, 5, 8, 11, 21},
    {7, 8, 15, 24, 26},
    {6, 11, 12, 13, 30},
    {6, 11, 12, 21, 29}
];
