n = 100;
allowed = [
    {2, 15, 21, 30, 32, 65, 68, 72, 73, 80},
    {1, 15, 21, 30, 32, 63, 64, 65, 68, 72},
    {1, 4, 30, 32, 46, 53, 63, 64, 84, 87},
    {3, 14, 25, 30, 32, 71, 80, 86, 87, 93, 99},
    {11, 13, 28, 36, 44, 48, 51, 52, 60, 70, 75},
    {17, 20, 35, 45, 47, 50, 56, 59, 60, 97},
    {12, 24, 26, 31, 40, 41, 55, 58, 78, 94},
    {16, 18, 34, 39, 49, 57, 81, 83, 88, 100},
    {4, 14, 22, 43, 46, 53, 54, 71, 87, 99},
    {19, 24, 67, 69, 74, 79, 82, 85, 90, 100},
    {5, 29, 37, 51, 66, 70, 73, 75, 80, 96},
    {7, 26, 27, 31, 40, 41, 50, 65, 78, 94},
    {15, 20, 21, 29, 51, 56, 60, 73, 75, 96},
    {3, 4, 9, 53, 54, 71, 86, 87, 93, 99},
    {1, 2, 21, 29, 30, 32, 68, 72, 73, 75},
    {8, 34, 39, 43, 49, 57, 81, 83, 88, 100},
    {6, 20, 35, 42, 45, 47, 56, 59, 61, 97},
    {8, 10, 33, 69, 79, 81, 88, 90, 91, 100},
    {10, 24, 25, 26, 27, 31, 55, 74, 82, 85},
    {6, 17, 35, 36, 42, 44, 52, 56, 61, 97},
    {1, 15, 29, 30, 32, 51, 68, 73, 80, 96},
    {4, 11, 14, 37, 66, 71, 80, 86, 93, 99},
    {38, 40, 41, 50, 58, 76, 77, 78, 92, 94},
    {7, 10, 19, 25, 26, 27, 31, 55, 74, 85},
    {7, 10, 19, 24, 26, 47, 55, 62, 79, 85, 95},
    {7, 10, 19, 24, 25, 27, 31, 55, 74, 85},
    {19, 26, 31, 63, 64, 65, 74, 82, 84, 85},
    {5, 36, 44, 48, 52, 61, 70, 89, 97, 98},
    {13, 15, 21, 51, 60, 68, 73, 75, 80, 96},
    {1, 2, 3, 15, 21, 32, 63, 64, 65, 68},
    {7, 8, 12, 19, 24, 26, 27, 41, 63, 65, 85},
    {1, 2, 15, 21, 29, 30, 68, 73, 80, 86},
    {8, 10, 18, 69, 79, 81, 88, 90, 91, 100},
    {16, 39, 43, 49, 57, 67, 69, 83, 88, 100},
    {6, 17, 20, 36, 42, 44, 52, 56, 61, 97},
    {28, 35, 42, 44, 48, 52, 61, 89, 97, 98},
    {4, 11, 22, 66, 71, 80, 86, 93, 96, 99},
    {7, 23, 40, 58, 62, 77, 78, 92, 94, 95},
    {8, 16, 34, 43, 49, 57, 81, 83, 88, 100},
    {7, 23, 38, 41, 58, 76, 77, 78, 92, 94},
    {7, 12, 27, 31, 40, 50, 58, 76, 78, 94},
    {17, 20, 35, 36, 44, 52, 61, 89, 97, 98},
    {16, 34, 39, 46, 49, 53, 57, 67, 83, 88},
    {20, 28, 36, 48, 52, 56, 61, 89, 97, 98},
    {6, 17, 20, 35, 42, 47, 50, 56, 59, 97},
    {3, 30, 34, 43, 53, 63, 64, 67, 84, 87},
    {6, 17, 20, 23, 35, 45, 50, 54, 59, 76, 78},
    {5, 28, 36, 44, 52, 61, 70, 89, 97, 98},
    {8, 16, 34, 39, 43, 57, 81, 83, 88, 100},
    {6, 12, 17, 23, 41, 45, 47, 59, 76, 78},
    {13, 15, 21, 29, 32, 68, 71, 73, 75, 80, 96},
    {28, 35, 36, 42, 44, 48, 61, 89, 97, 98},
    {3, 9, 14, 16, 34, 43, 46, 54, 57, 87},
    {4, 9, 14, 22, 46, 53, 71, 87, 93, 99},
    {7, 19, 24, 25, 26, 31, 58, 62, 85, 95},
    {6, 13, 20, 35, 36, 44, 52, 60, 61, 97},
    {16, 34, 39, 43, 49, 67, 69, 83, 88, 100},
    {7, 38, 40, 41, 55, 62, 77, 92, 94, 95},
    {6, 17, 20, 35, 42, 45, 47, 50, 76, 78},
    {6, 13, 15, 20, 21, 29, 50, 51, 56, 72, 75},
    {20, 28, 35, 36, 42, 44, 52, 89, 97, 98},
    {7, 24, 25, 26, 38, 40, 55, 58, 92, 95},
    {1, 2, 3, 27, 30, 32, 64, 65, 72, 84},
    {1, 2, 3, 27, 30, 32, 46, 63, 65, 84},
    {1, 2, 15, 27, 30, 31, 63, 64, 72, 84},
    {4, 11, 22, 37, 71, 73, 80, 86, 93, 99},
    {10, 34, 49, 57, 69, 74, 82, 84, 88, 100},
    {1, 2, 15, 21, 29, 30, 32, 51, 73, 80},
    {10, 33, 57, 67, 74, 79, 81, 82, 90, 100},
    {5, 11, 13, 28, 29, 44, 48, 51, 75, 96},
    {4, 14, 22, 37, 54, 66, 86, 87, 93, 99},
    {1, 2, 15, 21, 29, 30, 32, 60, 65, 68},
    {15, 21, 29, 32, 51, 68, 75, 80, 86, 96},
    {10, 19, 24, 26, 27, 67, 69, 76, 82, 85, 100},
    {13, 15, 21, 29, 51, 60, 68, 73, 80, 96},
    {12, 23, 40, 41, 45, 47, 50, 59, 78, 94},
    {23, 38, 40, 58, 62, 76, 78, 92, 94, 95},
    {7, 12, 23, 40, 41, 47, 50, 59, 76, 94},
    {10, 18, 24, 25, 33, 69, 81, 90, 91, 100},
    {21, 29, 32, 51, 68, 73, 75, 86, 93, 96},
    {8, 18, 33, 57, 69, 83, 88, 90, 91, 100},
    {10, 19, 27, 34, 67, 69, 74, 84, 85, 100},
    {8, 16, 34, 39, 49, 57, 69, 81, 88, 100},
    {3, 27, 30, 46, 63, 64, 65, 67, 82, 87},
    {10, 19, 24, 25, 26, 27, 31, 55, 74, 82},
    {4, 21, 32, 66, 71, 73, 80, 93, 96, 99},
    {3, 4, 14, 30, 46, 53, 64, 71, 84, 86},
    {8, 16, 34, 39, 49, 57, 69, 81, 83, 100},
    {20, 28, 35, 36, 42, 44, 52, 61, 97, 98},
    {10, 18, 19, 33, 69, 74, 79, 81, 91, 100},
    {8, 10, 18, 33, 37, 69, 79, 81, 88, 90, 100},
    {7, 23, 38, 40, 55, 58, 62, 77, 94, 95},
    {4, 22, 32, 37, 66, 71, 73, 80, 86, 99},
    {7, 23, 38, 40, 41, 58, 76, 77, 78, 92},
    {7, 25, 38, 40, 55, 58, 62, 77, 92, 94},
    {13, 15, 21, 29, 32, 51, 68, 73, 75, 80},
    {20, 35, 36, 42, 44, 52, 56, 61, 89, 98},
    {28, 35, 36, 42, 44, 48, 52, 61, 89, 97},
    {4, 14, 22, 37, 66, 71, 80, 86, 87, 93},
    {10, 34, 57, 67, 69, 74, 81, 83, 88, 90}
];
