n = 50;
allowed = [
    {8, 13, 21, 41, 43},
    {12, 16, 17, 25, 38, 48},
    {10, 16, 19, 21, 33},
    {5, 15, 28, 40, 45},
    {4, 15, 28, 40, 45},
    {8, 13, 18, 41, 43, 49},
    {9, 14, 24, 27, 44, 49},
    {6, 13, 18, 41, 43},
    {24, 34, 37, 46, 47},
    {3, 16, 19, 21, 33},
    {12, 26, 31, 38, 50},
    {25, 26, 31, 38, 50},
    {6, 8, 18, 41, 43},
    {7, 27, 39, 44, 49},
    {4, 20, 23, 28, 29},
    {3, 10, 19, 25, 33},
    {1, 2, 3, 21, 25},
    {6, 8, 13, 41, 43},
    {3, 10, 16, 25, 33},
    {15, 23, 35, 39, 48},
    {1, 3, 10, 16, 33},
    {19, 30, 32, 34, 47},
    {15, 20, 28, 39, 48},
    {7, 9, 27, 44, 46},
    {2, 12, 16, 19, 31, 38},
    {11, 12, 31, 38, 50},
    {7, 14, 35, 39, 44},
    {4, 5, 15, 23, 45},
    {4, 15, 36, 40, 42},
    {16, 19, 22, 32, 33},
    {12, 25, 26, 38, 50},
    {16, 19, 20, 22, 30, 33},
    {3, 10, 16, 19, 32},
    {9, 22, 37, 46, 47},
    {7, 20, 24, 27, 39},
    {4, 15, 23, 29, 42},
    {9, 24, 34, 46, 47},
    {12, 19, 25, 31, 50},
    {7, 14, 20, 23, 27, 35},
    {4, 5, 15, 28, 45},
    {6, 8, 13, 18, 43},
    {4, 14, 15, 17, 29, 36},
    {6, 8, 13, 18, 41},
    {7, 14, 24, 27, 49},
    {4, 5, 15, 28, 40},
    {7, 9, 24, 37, 44},
    {9, 22, 34, 37, 46},
    {15, 20, 23, 26, 28, 45},
    {7, 14, 24, 27, 44},
    {11, 12, 26, 31, 38}
];
