n = 30;
allowed = [
    {5, 7, 15, 16, 20, 23, 29},
    {3, 10, 12, 17, 18, 25, 26, 28},
    {2, 6, 13, 16, 20, 21, 26},
    {7, 8, 9, 15, 19, 22, 23, 30},
    {1, 7, 11, 12, 14, 20, 29},
    {3, 9, 13, 16, 21, 26, 27},
    {1, 5, 8, 11, 14, 20, 29},
    {4, 7, 15, 19, 22, 23, 30},
    {6, 13, 15, 16, 25, 27, 29},
    {11, 12, 14, 17, 18, 24, 28},
    {5, 10, 12, 14, 17, 24, 28},
    {5, 10, 11, 17, 18, 24, 28},
    {3, 6, 9, 16, 21, 26, 27},
    {5, 7, 10, 11, 12, 24, 28},
    {1, 9, 16, 23, 25, 29, 30},
    {1, 9, 13, 15, 25, 27, 29},
    {2, 10, 11, 12, 18, 24, 28},
    {2, 10, 12, 17, 24, 26, 28},
    {4, 7, 8, 15, 22, 23, 30},
    {1, 5, 7, 12, 16, 26, 29},
    {3, 6, 13, 16, 19, 20, 26, 27},
    {4, 7, 8, 15, 19, 23, 30},
    {1, 4, 8, 15, 19, 22, 30},
    {5, 10, 11, 12, 14, 17, 28},
    {6, 9, 13, 15, 16, 23, 27},
    {2, 3, 6, 13, 17, 20, 21},
    {6, 9, 13, 15, 16, 21, 25},
    {10, 11, 12, 14, 17, 18, 24},
    {1, 5, 7, 15, 16, 20, 23},
    {1, 4, 8, 15, 19, 22, 23}
];
