n = 100;
allowed = [
    {7, 28, 45, 51, 53, 66, 68, 89},
    {15, 16, 29, 45, 46, 51, 73},
    {23, 37, 41, 56, 58, 62, 65},
    {9, 17, 20, 42, 75, 92, 96},
    {10, 30, 50, 55, 91, 94, 95},
    {15, 18, 21, 27, 29, 30, 95},
    {1, 51, 53, 66, 68, 86, 89},
    {43, 47, 57, 63, 67, 74, 80, 85},
    {4, 12, 17, 20, 72, 92, 96},
    {5, 13, 33, 55, 84, 91, 94},
    {26, 31, 32, 37, 58, 76, 97},
    {9, 20, 40, 44, 72, 88, 92},
    {24, 33, 81, 84, 90, 91, 94},
    {35, 44, 77, 79, 87, 97, 98, 99},
    {2, 6, 16, 18, 29, 46, 73},
    {2, 15, 29, 46, 48, 51, 73},
    {4, 20, 39, 42, 75, 82, 96},
    {6, 15, 21, 22, 27, 30, 95},
    {64, 69, 71, 78, 85, 93, 100},
    {4, 9, 17, 39, 75, 92, 96},
    {6, 18, 22, 27, 95, 97, 99},
    {18, 21, 27, 30, 87, 95, 99},
    {3, 34, 36, 41, 61, 65, 66},
    {13, 33, 81, 83, 84, 90, 91},
    {3, 26, 37, 38, 56, 58, 62, 68},
    {11, 32, 37, 58, 61, 76, 97},
    {6, 15, 18, 21, 22, 29, 30},
    {10, 13, 33, 81, 84, 91, 94},
    {2, 6, 15, 16, 45, 46, 73},
    {5, 6, 15, 18, 22, 40, 55, 95},
    {11, 32, 63, 67, 74, 76, 80},
    {11, 26, 31, 37, 61, 76, 97},
    {13, 24, 81, 84, 90, 91, 94},
    {7, 23, 41, 49, 54, 65, 86},
    {64, 72, 77, 78, 79, 93, 100},
    {3, 23, 34, 37, 45, 61, 66},
    {3, 26, 36, 56, 58, 61, 62},
    {25, 37, 56, 58, 62, 67, 74},
    {4, 17, 20, 40, 75, 82, 88},
    {9, 12, 20, 21, 39, 44, 75, 88},
    {3, 34, 49, 54, 62, 65, 86},
    {4, 9, 17, 20, 71, 85, 96},
    {8, 31, 47, 57, 63, 67, 80},
    {12, 14, 40, 72, 79, 88, 92},
    {1, 2, 7, 29, 36, 51, 66},
    {2, 15, 16, 29, 45, 51, 73},
    {8, 43, 57, 63, 67, 74, 80},
    {1, 2, 16, 46, 51, 53, 89},
    {7, 34, 41, 54, 65, 86, 98},
    {5, 10, 18, 30, 59, 64, 78, 95},
    {1, 2, 7, 45, 48, 53, 89},
    {12, 19, 60, 64, 69, 70, 78, 93},
    {1, 7, 48, 51, 66, 68, 89},
    {7, 34, 41, 49, 50, 65, 86, 98},
    {5, 10, 15, 24, 30, 83, 95},
    {3, 25, 37, 38, 41, 58, 62},
    {8, 43, 47, 63, 67, 74, 80},
    {3, 25, 26, 37, 56, 61, 62},
    {5, 22, 50, 64, 78, 93, 95},
    {19, 52, 64, 69, 70, 93, 100},
    {3, 23, 26, 32, 36, 37, 58},
    {3, 23, 37, 41, 56, 58, 65},
    {8, 43, 47, 57, 67, 74, 80},
    {19, 35, 59, 69, 78, 93, 100},
    {3, 23, 34, 41, 49, 54, 86},
    {1, 7, 23, 36, 45, 51, 53},
    {8, 31, 47, 57, 63, 74, 80},
    {1, 7, 53, 54, 86, 89, 98},
    {19, 60, 64, 71, 85, 93, 100},
    {19, 28, 52, 60, 64, 69, 93},
    {19, 69, 77, 85, 93, 96, 100},
    {9, 12, 20, 35, 77, 92, 96},
    {2, 15, 16, 29, 46, 48, 83},
    {8, 31, 47, 57, 63, 67, 80},
    {4, 9, 17, 20, 39, 82, 96},
    {11, 26, 31, 32, 63, 67, 97},
    {19, 35, 71, 72, 78, 93, 100},
    {19, 35, 64, 69, 77, 93, 100},
    {14, 35, 44, 72, 77, 87, 92},
    {8, 43, 47, 57, 63, 67, 74},
    {13, 24, 28, 33, 70, 84, 90, 91},
    {4, 10, 17, 20, 39, 42, 75, 96},
    {5, 10, 15, 16, 24, 55, 73},
    {10, 13, 33, 81, 90, 91, 94},
    {4, 19, 42, 69, 71, 96, 100},
    {7, 34, 41, 49, 54, 65, 98},
    {14, 22, 35, 77, 79, 97, 99},
    {9, 12, 20, 39, 40, 75, 92},
    {1, 7, 48, 51, 53, 68, 98},
    {13, 24, 33, 81, 84, 91, 94},
    {10, 13, 24, 33, 81, 84, 94},
    {4, 9, 12, 20, 72, 77, 96},
    {19, 64, 69, 71, 77, 78, 100},
    {5, 10, 13, 28, 33, 84, 91},
    {5, 6, 18, 22, 30, 50, 59},
    {4, 9, 17, 20, 42, 72, 79, 92},
    {21, 22, 27, 32, 76, 87, 99},
    {7, 49, 53, 54, 68, 86, 89},
    {14, 21, 22, 27, 87, 95, 97},
    {19, 35, 69, 71, 77, 78, 93}
];
