n = 100;
allowed = [
    {42, 63, 81, 89},
    {32, 73, 90, 93},
    {4, 28, 47},
    {3, 47, 53},
    {35, 71, 91, 100},
    {1, 23, 35, 84},
    {25, 77, 79},
    {12, 62, 92, 96},
    {47, 57, 85},
    {38, 40, 82},
    {12, 19, 34},
    {11, 19, 37},
    {20, 37, 62},
    {38, 83, 88},
    {21, 39, 41, 70},
    {26, 59, 65, 98},
    {7, 77, 79},
    {51, 52, 74, 98},
    {11, 12, 34},
    {13, 37, 62, 78},
    {15, 41, 93},
    {30, 46, 48},
    {6, 74, 84},
    {25, 27, 95},
    {7, 24, 77},
    {16, 60, 65},
    {24, 55, 80, 95},
    {3, 4, 66},
    {53, 65, 66, 67},
    {22, 46, 48},
    {21, 64, 76, 96},
    {2, 34, 90},
    {47, 78, 99},
    {11, 19, 37},
    {5, 84, 100},
    {56, 83, 88},
    {13, 19, 62},
    {10, 14, 82},
    {44, 56, 87, 88},
    {10, 38, 44, 52},
    {15, 21, 93},
    {46, 54, 63},
    {41, 49, 72},
    {39, 56, 88},
    {66, 73, 77},
    {22, 42, 89},
    {3, 4, 53},
    {22, 30, 43, 46},
    {43, 59, 72},
    {55, 61, 68},
    {18, 74, 98},
    {10, 40, 82},
    {3, 4, 47},
    {1, 42, 63},
    {27, 50, 61},
    {36, 83, 88},
    {9, 68, 85},
    {36, 90, 91},
    {16, 49, 72},
    {8, 26, 35, 65},
    {50, 55, 81, 85},
    {12, 13, 37},
    {1, 42, 89},
    {71, 76, 86, 96},
    {16, 26, 60},
    {3, 28, 67},
    {29, 53, 66},
    {5, 50, 55, 57},
    {2, 22, 46, 82},
    {35, 60, 84, 100},
    {5, 76, 100},
    {49, 59, 84, 92},
    {45, 66, 77},
    {23, 51, 84},
    {76, 86, 94},
    {64, 71, 86},
    {7, 17, 79},
    {33, 85, 99},
    {7, 17, 77},
    {18, 32, 34, 37},
    {55, 61, 95},
    {10, 38, 69},
    {14, 56, 97},
    {6, 35, 74},
    {9, 47, 57},
    {75, 76, 94},
    {16, 59, 64, 65},
    {39, 44, 56},
    {1, 46, 63},
    {2, 32, 93},
    {36, 58, 93},
    {49, 59, 72},
    {2, 21, 90},
    {54, 75, 76, 86},
    {24, 27, 55},
    {8, 12, 31},
    {14, 56, 83},
    {18, 51, 74},
    {33, 47, 78},
    {5, 35, 71}
];
