n = 50;
allowed = [
    {9, 12, 23, 37, 43},
    {4, 11, 17, 34},
    {41, 43, 47, 49},
    {11, 19, 21, 36},
    {6, 9, 12, 30, 39},
    {5, 9, 23, 29},
    {14, 35, 48, 49},
    {15, 38, 40, 50},
    {5, 6, 23, 46},
    {18, 27, 28, 32},
    {4, 19, 29, 36},
    {1, 5, 23, 37},
    {7, 22, 44, 49},
    {7, 35, 44, 48},
    {8, 16, 38, 40},
    {8, 15, 21, 38},
    {2, 6, 11, 24, 29},
    {10, 25, 27, 32},
    {4, 11, 29, 36},
    {7, 26, 35, 49},
    {15, 16, 38, 45},
    {12, 13, 39, 43},
    {1, 5, 9, 46},
    {10, 28, 32, 33},
    {10, 18, 27, 50},
    {3, 20, 23, 41, 49},
    {10, 18, 25, 32},
    {10, 24, 32, 33},
    {6, 11, 19, 39},
    {19, 31, 34, 36, 42},
    {30, 33, 39, 42},
    {5, 10, 18, 24, 28},
    {24, 28, 41, 47},
    {2, 4, 17, 45, 47},
    {7, 14, 20, 48},
    {4, 11, 19, 42},
    {1, 9, 12, 23},
    {8, 15, 16, 21},
    {5, 22, 29, 31},
    {8, 15, 38, 50},
    {3, 20, 47, 49},
    {19, 30, 31, 36},
    {3, 13, 22, 46, 49},
    {7, 13, 14, 48},
    {2, 15, 16, 21, 38},
    {5, 6, 9, 16, 23},
    {3, 33, 41, 49},
    {7, 14, 20, 35},
    {3, 7, 14, 41},
    {3, 8, 15, 38, 40}
];
