n = 100;
allowed = [
    {2, 7, 45, 48, 51, 53, 66, 68, 86, 89},
    {1, 15, 16, 29, 45, 46, 48, 51, 66, 73, 83},
    {8, 23, 34, 36, 37, 41, 56, 58, 61, 62, 65},
    {9, 14, 17, 20, 42, 71, 72, 75, 85, 92, 96},
    {10, 13, 30, 33, 50, 55, 84, 91, 94, 95},
    {2, 15, 18, 21, 22, 27, 29, 30, 46, 95},
    {1, 45, 49, 51, 53, 54, 66, 68, 86, 89},
    {31, 38, 43, 47, 57, 63, 67, 74, 76, 80},
    {4, 12, 17, 20, 42, 72, 75, 88, 92, 96},
    {5, 13, 24, 30, 33, 50, 55, 84, 91, 94},
    {25, 26, 31, 32, 37, 58, 61, 67, 76, 97},
    {9, 20, 40, 44, 72, 75, 79, 88, 92, 96},
    {5, 10, 24, 28, 33, 36, 81, 84, 90, 91, 94},
    {12, 35, 44, 72, 77, 79, 87, 92, 97, 99},
    {2, 6, 16, 18, 27, 29, 30, 46, 55, 73},
    {2, 6, 15, 29, 45, 46, 48, 51, 73, 83},
    {4, 9, 20, 39, 42, 72, 75, 82, 92, 96},
    {6, 15, 21, 22, 27, 29, 30, 46, 95, 99},
    {35, 60, 64, 69, 71, 77, 78, 85, 93, 100},
    {4, 9, 17, 39, 42, 72, 75, 82, 92, 96},
    {6, 18, 22, 27, 29, 30, 87, 95, 97, 99},
    {6, 18, 21, 27, 30, 59, 87, 95, 97, 99},
    {3, 34, 36, 37, 41, 61, 62, 65, 66, 86},
    {10, 13, 33, 55, 81, 83, 84, 90, 91, 94},
    {3, 11, 26, 32, 37, 38, 56, 58, 61, 62},
    {11, 31, 32, 36, 37, 56, 58, 61, 76, 97},
    {6, 15, 18, 21, 22, 29, 30, 95, 97, 99},
    {10, 13, 33, 52, 70, 81, 84, 90, 91, 94},
    {2, 6, 15, 16, 18, 27, 45, 46, 51, 73},
    {5, 6, 15, 18, 21, 22, 27, 50, 55, 95},
    {11, 26, 32, 43, 47, 63, 67, 74, 76, 80},
    {11, 21, 26, 31, 36, 37, 58, 61, 76, 97},
    {5, 10, 13, 24, 28, 81, 84, 90, 91, 94},
    {3, 7, 23, 41, 49, 54, 62, 65, 66, 86},
    {19, 64, 71, 72, 77, 78, 79, 87, 93, 100},
    {3, 23, 26, 29, 34, 37, 45, 61, 65, 66},
    {3, 23, 25, 26, 32, 36, 56, 58, 61, 62},
    {8, 11, 25, 37, 56, 58, 62, 63, 67, 74},
    {4, 9, 17, 20, 40, 75, 82, 88, 92, 96},
    {9, 12, 17, 20, 39, 44, 72, 75, 88, 92},
    {3, 23, 34, 36, 49, 54, 56, 62, 65, 86},
    {4, 9, 17, 20, 71, 72, 75, 85, 92, 96},
    {8, 31, 44, 47, 57, 63, 67, 74, 76, 80},
    {9, 12, 14, 35, 40, 43, 72, 79, 88, 92},
    {1, 2, 7, 23, 29, 36, 46, 51, 53, 66},
    {2, 6, 15, 16, 18, 29, 45, 48, 51, 73},
    {8, 31, 43, 44, 57, 63, 67, 74, 76, 80},
    {1, 2, 7, 16, 45, 46, 51, 53, 73, 89},
    {2, 7, 23, 34, 41, 53, 54, 65, 68, 86, 98},
    {5, 10, 22, 30, 52, 59, 64, 78, 94, 95},
    {1, 2, 7, 45, 46, 48, 53, 66, 68, 89},
    {19, 27, 50, 59, 60, 64, 69, 70, 78, 93, 100},
    {1, 7, 45, 48, 51, 66, 68, 86, 89, 98},
    {7, 23, 34, 41, 49, 53, 65, 68, 86, 98},
    {5, 6, 10, 15, 18, 24, 30, 73, 83, 95},
    {3, 23, 25, 37, 38, 41, 58, 61, 62, 65},
    {8, 31, 38, 43, 47, 63, 67, 74, 76, 80, 82},
    {3, 11, 25, 26, 32, 37, 38, 56, 61, 62},
    {5, 22, 30, 35, 50, 64, 78, 93, 95, 99},
    {19, 52, 64, 69, 70, 71, 78, 85, 93, 100},
    {3, 23, 26, 32, 36, 37, 56, 58, 62, 66},
    {3, 23, 25, 34, 37, 41, 56, 58, 61, 65},
    {8, 11, 31, 43, 47, 57, 67, 74, 76, 80},
    {19, 35, 50, 59, 60, 69, 77, 78, 93, 100},
    {3, 7, 23, 34, 41, 49, 54, 62, 66, 86},
    {1, 2, 7, 23, 29, 34, 36, 45, 51, 53},
    {8, 11, 31, 43, 47, 57, 63, 74, 76, 80},
    {1, 7, 49, 51, 53, 54, 66, 86, 89, 98},
    {19, 52, 60, 64, 71, 77, 78, 85, 93, 100},
    {19, 28, 50, 52, 59, 60, 64, 69, 78, 93},
    {19, 35, 42, 69, 72, 77, 85, 93, 96, 100},
    {4, 9, 12, 20, 35, 71, 77, 79, 92, 96},
    {2, 6, 15, 16, 29, 46, 48, 51, 55, 83},
    {8, 31, 38, 43, 47, 57, 63, 67, 76, 80},
    {4, 9, 17, 20, 39, 42, 82, 88, 92, 96},
    {11, 26, 31, 32, 37, 52, 58, 63, 67, 74, 97},
    {19, 35, 64, 69, 71, 72, 78, 92, 93, 100},
    {19, 35, 50, 59, 64, 69, 71, 77, 93, 100},
    {9, 12, 14, 35, 44, 72, 77, 87, 92, 99},
    {8, 11, 31, 43, 47, 57, 63, 67, 74, 76},
    {5, 10, 13, 24, 28, 33, 84, 90, 91, 94},
    {4, 9, 17, 20, 39, 40, 42, 49, 75, 88, 96},
    {5, 10, 13, 15, 16, 18, 24, 30, 55, 73, 91},
    {5, 10, 13, 24, 28, 33, 81, 90, 91, 94},
    {4, 19, 42, 60, 69, 71, 77, 93, 96, 100},
    {7, 23, 34, 41, 49, 53, 54, 65, 68, 98},
    {14, 21, 22, 35, 64, 77, 78, 79, 97, 99},
    {9, 12, 17, 20, 39, 40, 44, 72, 75, 92},
    {1, 3, 7, 45, 48, 51, 53, 66, 68, 86, 98},
    {10, 13, 24, 28, 33, 81, 83, 84, 91, 94},
    {5, 10, 13, 24, 28, 33, 81, 84, 90, 94},
    {4, 9, 12, 17, 20, 42, 72, 77, 88, 96},
    {19, 35, 60, 64, 69, 71, 77, 78, 85, 100},
    {5, 10, 13, 24, 28, 33, 50, 81, 84, 91},
    {5, 6, 18, 21, 22, 30, 50, 55, 59, 99},
    {4, 9, 17, 20, 42, 71, 72, 75, 85, 92},
    {11, 14, 21, 22, 26, 27, 32, 76, 87, 99},
    {1, 7, 34, 49, 53, 54, 65, 68, 86, 89},
    {14, 18, 21, 22, 27, 59, 79, 87, 95, 97},
    {19, 35, 64, 69, 71, 72, 77, 78, 85, 93}
];
