n = 30;
allowed = [
    {2, 5, 10, 17, 20, 23, 24},
    {1, 10, 17, 18, 23, 24, 25},
    {8, 11, 13, 19, 22, 23, 28},
    {1, 2, 10, 17, 18, 23, 24, 25},
    {1, 2, 13, 20, 22, 23, 24},
    {7, 12, 14, 19, 21, 22, 30},
    {6, 12, 14, 21, 22, 23, 30},
    {3, 11, 13, 19, 22, 23, 28},
    {10, 15, 16, 18, 25, 26, 29},
    {2, 9, 15, 17, 18, 24, 25},
    {3, 8, 13, 19, 22, 23, 28},
    {6, 7, 10, 14, 15, 21, 30},
    {3, 5, 8, 11, 20, 23, 28},
    {6, 7, 12, 21, 22, 28, 30},
    {9, 10, 16, 25, 26, 27, 29},
    {9, 10, 15, 25, 26, 27, 29},
    {1, 2, 9, 10, 18, 24, 25},
    {9, 10, 15, 16, 17, 25, 26},
    {3, 8, 11, 14, 21, 22, 28},
    {1, 2, 4, 5, 13, 22, 23, 24},
    {6, 7, 12, 14, 19, 22, 30},
    {3, 7, 8, 11, 14, 23, 28},
    {1, 2, 5, 8, 22, 24, 28},
    {1, 2, 5, 10, 17, 18, 23},
    {9, 10, 15, 16, 17, 18, 26},
    {9, 15, 16, 18, 25, 27, 29},
    {9, 12, 15, 16, 25, 26, 29},
    {3, 7, 8, 11, 17, 19, 22, 23},
    {9, 12, 15, 16, 25, 26, 27},
    {3, 6, 7, 12, 14, 15, 21, 22}
];
