n = 20;
allowed = [
    {2, 3, 11, 12, 16, 17, 19},
    {6, 8, 11, 12, 14, 15, 18},
    {1, 8, 11, 13, 17, 18, 19},
    {5, 6, 7, 9, 15, 18, 20},
    {3, 4, 6, 7, 9, 10, 18, 20},
    {4, 5, 7, 9, 10, 18, 20},
    {4, 5, 6, 8, 9, 10, 18},
    {2, 5, 6, 10, 11, 13, 18},
    {4, 5, 6, 7, 10, 18, 20},
    {5, 6, 7, 8, 11, 13, 18},
    {1, 2, 3, 8, 10, 13, 18},
    {1, 2, 14, 15, 16, 19, 20},
    {2, 3, 7, 8, 10, 11, 15, 18},
    {1, 2, 6, 12, 15, 19, 20},
    {2, 4, 5, 6, 12, 14, 19, 20},
    {1, 2, 11, 12, 14, 17, 19},
    {1, 2, 3, 11, 12, 16, 19},
    {2, 5, 7, 8, 10, 11, 13},
    {1, 2, 3, 11, 12, 16, 17},
    {2, 4, 5, 6, 7, 9, 15}
];
