n = 30;
allowed = [
    {6, 27, 29},
    {14, 18, 19},
    {7, 16, 17},
    {8, 9, 12, 20},
    {6, 22, 27},
    {1, 5, 16, 27},
    {3, 16, 17},
    {9, 13, 20},
    {10, 13, 20},
    {1, 9, 13, 20},
    {21, 26, 29},
    {2, 18, 19},
    {8, 9, 20},
    {2, 18, 23},
    {24, 25, 27},
    {3, 7, 17},
    {7, 16, 28},
    {2, 14, 19},
    {2, 12, 14, 18},
    {4, 8, 9},
    {9, 11, 26, 29},
    {5, 6, 21},
    {2, 14, 18, 27},
    {6, 15, 27},
    {15, 27, 30},
    {11, 21, 29},
    {5, 6, 30},
    {3, 16, 17, 24},
    {11, 21, 26},
    {5, 10, 22, 27}
];
