n = 100;
allowed = [
    {6, 32, 34, 38, 55, 60, 67, 77, 81, 98},
    {12, 14, 18, 19, 47, 51, 57, 61, 91, 92},
    {7, 16, 17, 28, 32, 37, 39, 46, 82, 90, 99},
    {8, 20, 34, 52, 56, 58, 59, 85, 87, 97},
    {6, 22, 27, 53, 63, 67, 71, 73, 81, 88},
    {1, 5, 27, 55, 60, 63, 67, 77, 81, 98},
    {16, 33, 35, 39, 54, 82, 84, 90, 96, 99},
    {3, 4, 9, 13, 20, 43, 56, 58, 59, 64, 97},
    {8, 10, 13, 20, 31, 36, 43, 64, 74, 97},
    {9, 20, 31, 35, 36, 49, 64, 74, 82, 90},
    {21, 26, 29, 33, 72, 79, 84, 93, 95, 96},
    {2, 14, 18, 19, 47, 51, 57, 61, 89, 94},
    {8, 9, 20, 31, 43, 56, 59, 64, 74, 97},
    {2, 18, 19, 23, 44, 51, 61, 65, 78, 91},
    {24, 25, 45, 50, 53, 68, 75, 76, 80, 88},
    {3, 7, 17, 33, 35, 39, 82, 90, 96, 99},
    {3, 7, 16, 28, 33, 37, 40, 46, 93, 96},
    {2, 14, 19, 47, 51, 61, 65, 83, 91, 92},
    {2, 12, 14, 18, 51, 57, 61, 91, 92, 94},
    {4, 8, 9, 13, 31, 36, 43, 58, 64, 97},
    {11, 26, 29, 32, 33, 65, 72, 79, 84, 95},
    {5, 6, 32, 55, 67, 69, 73, 81, 83, 92},
    {14, 44, 48, 51, 62, 65, 78, 86, 91, 95},
    {41, 42, 45, 50, 68, 70, 75, 76, 77, 100},
    {15, 27, 30, 53, 71, 73, 75, 76, 80, 88},
    {11, 21, 29, 62, 65, 72, 79, 84, 93, 95},
    {5, 6, 53, 60, 63, 67, 71, 73, 81, 88},
    {3, 7, 16, 17, 37, 40, 46, 62, 86, 93},
    {11, 21, 26, 32, 33, 38, 54, 55, 72, 84},
    {5, 27, 47, 53, 69, 71, 73, 83, 88, 89},
    {8, 9, 10, 13, 20, 36, 43, 49, 64, 74},
    {1, 11, 21, 22, 29, 38, 55, 67, 72, 81},
    {7, 11, 16, 17, 54, 72, 84, 93, 96, 99},
    {1, 4, 38, 52, 58, 60, 77, 85, 87, 98},
    {7, 10, 16, 39, 49, 54, 82, 90, 96, 99},
    {4, 10, 20, 35, 49, 52, 74, 82, 85, 87},
    {3, 7, 16, 17, 28, 39, 40, 46, 90, 93},
    {1, 29, 32, 34, 52, 54, 55, 85, 87, 98},
    {3, 7, 16, 17, 35, 49, 82, 90, 96, 99},
    {17, 28, 33, 62, 72, 79, 84, 93, 95, 96},
    {34, 42, 52, 56, 58, 59, 66, 70, 77, 100},
    {34, 41, 52, 56, 58, 59, 66, 70, 77, 100},
    {4, 8, 9, 13, 20, 56, 58, 59, 64, 97},
    {14, 23, 26, 62, 65, 72, 78, 79, 91, 95},
    {15, 24, 27, 63, 68, 70, 75, 76, 77, 100},
    {3, 7, 16, 17, 28, 37, 39, 40, 86, 90},
    {2, 22, 30, 57, 61, 69, 73, 83, 89, 92},
    {14, 23, 28, 40, 44, 51, 62, 64, 78, 86, 91},
    {9, 10, 31, 35, 36, 39, 74, 82, 90, 99},
    {15, 24, 25, 45, 53, 68, 75, 76, 80, 88},
    {2, 14, 18, 19, 23, 44, 48, 65, 78, 91},
    {4, 20, 34, 38, 56, 58, 59, 85, 87, 97},
    {5, 25, 27, 30, 63, 71, 73, 75, 80, 88},
    {7, 16, 24, 29, 33, 35, 38, 82, 84, 96, 99},
    {1, 6, 29, 32, 38, 60, 67, 81, 85, 98},
    {4, 8, 20, 43, 52, 58, 59, 64, 66, 97},
    {2, 12, 18, 19, 47, 61, 69, 89, 92, 94},
    {4, 8, 20, 34, 43, 52, 56, 59, 64, 97},
    {4, 8, 20, 43, 52, 56, 58, 64, 66, 97},
    {1, 6, 34, 55, 63, 67, 77, 81, 98, 100},
    {2, 12, 14, 18, 19, 47, 57, 69, 83, 92},
    {11, 26, 40, 44, 65, 72, 79, 84, 93, 95},
    {5, 6, 27, 53, 67, 71, 73, 81, 88, 100},
    {8, 9, 13, 20, 31, 43, 56, 58, 59, 97},
    {14, 21, 26, 44, 62, 72, 78, 79, 91, 95},
    {19, 34, 41, 42, 52, 56, 58, 59, 70, 77, 100},
    {1, 5, 6, 22, 27, 55, 60, 63, 81, 98},
    {15, 24, 25, 45, 50, 53, 75, 76, 80, 100},
    {5, 22, 30, 47, 61, 71, 73, 83, 89, 92},
    {24, 41, 42, 45, 60, 63, 66, 77, 98, 100},
    {5, 25, 27, 30, 53, 63, 69, 73, 80, 88},
    {11, 21, 26, 29, 33, 62, 79, 84, 93, 95},
    {5, 22, 27, 30, 53, 63, 69, 71, 83, 88},
    {9, 10, 13, 20, 31, 35, 36, 49, 64, 82},
    {15, 25, 45, 50, 53, 63, 68, 76, 80, 88},
    {15, 24, 25, 45, 50, 53, 68, 75, 80, 88},
    {1, 6, 34, 55, 60, 67, 70, 81, 98, 100},
    {14, 23, 44, 48, 51, 62, 65, 79, 91, 95},
    {11, 21, 26, 44, 62, 65, 72, 84, 93, 95},
    {25, 27, 30, 53, 63, 71, 73, 75, 76, 88},
    {1, 5, 6, 22, 27, 32, 55, 60, 67, 98},
    {7, 16, 33, 35, 39, 49, 54, 90, 96, 99},
    {5, 22, 30, 47, 61, 69, 71, 73, 89, 92},
    {7, 11, 26, 33, 40, 54, 72, 93, 96, 99},
    {1, 4, 29, 34, 36, 38, 52, 55, 87, 98},
    {17, 23, 28, 37, 40, 44, 46, 48, 62, 78},
    {1, 4, 20, 34, 36, 38, 52, 55, 58, 85},
    {5, 6, 27, 30, 53, 63, 71, 73, 75, 80},
    {30, 47, 53, 57, 61, 69, 71, 73, 83, 92, 94},
    {3, 7, 16, 33, 35, 39, 49, 82, 96, 99},
    {14, 18, 23, 44, 51, 62, 65, 78, 79, 95},
    {2, 5, 18, 22, 30, 47, 61, 69, 73, 83},
    {11, 17, 26, 33, 40, 62, 72, 79, 84, 96},
    {2, 12, 18, 19, 47, 51, 57, 61, 89, 92},
    {11, 21, 26, 44, 62, 65, 72, 79, 91, 93},
    {7, 11, 16, 17, 33, 54, 82, 84, 93, 99},
    {4, 8, 13, 20, 43, 52, 56, 58, 59, 64},
    {1, 6, 34, 38, 55, 60, 67, 77, 81, 85},
    {7, 16, 33, 35, 39, 54, 82, 84, 90, 96},
    {6, 24, 41, 42, 45, 60, 63, 70, 77, 98}
];
