n = 30;
allowed = [
    {3, 8, 18, 20},
    {1, 3, 16, 20},
    {1, 2, 16, 20},
    {9, 10, 24, 25, 28},
    {1, 2, 16, 27, 30},
    {11, 12, 21, 30},
    {13, 15, 22, 26},
    {1, 18, 24, 28},
    {4, 15, 23, 26},
    {1, 14, 17, 19, 24},
    {6, 12, 13, 29},
    {6, 11, 13, 29},
    {7, 11, 12, 29},
    {10, 17, 19, 25},
    {9, 22, 23, 26},
    {2, 3, 5, 20},
    {10, 14, 19, 24},
    {1, 8, 24, 28},
    {10, 14, 17, 25},
    {1, 2, 3, 16},
    {6, 11, 12, 27},
    {7, 15, 23, 26},
    {9, 15, 22, 26},
    {8, 18, 26, 28},
    {4, 14, 19, 24},
    {7, 15, 22, 28},
    {5, 8, 11, 21},
    {7, 8, 17, 24, 26},
    {6, 11, 12, 13},
    {6, 11, 12, 24, 29}
];
