n = 100;
allowed = [
    {7, 50, 51, 53, 66, 89},
    {15, 16, 29, 45, 46},
    {23, 37, 41, 56, 62},
    {9, 17, 20, 42, 96},
    {10, 30, 50, 55, 94},
    {15, 18, 21, 27, 30},
    {1, 51, 53, 68, 89},
    {57, 63, 67, 74, 80},
    {4, 20, 72, 92, 96},
    {5, 55, 84, 91, 94},
    {26, 31, 32, 76, 97},
    {9, 40, 44, 83, 88, 92},
    {24, 33, 81, 84, 91},
    {35, 44, 79, 87, 99},
    {6, 16, 28, 29, 46, 73},
    {2, 15, 29, 46, 73},
    {4, 20, 39, 42, 75},
    {6, 21, 27, 30, 95},
    {69, 71, 78, 93, 100},
    {4, 9, 17, 75, 96},
    {18, 22, 27, 97, 99},
    {18, 21, 87, 95, 99},
    {3, 34, 36, 61, 66},
    {13, 33, 84, 90, 91},
    {16, 37, 38, 56, 58, 62},
    {11, 32, 37, 61, 76},
    {6, 18, 21, 22, 29},
    {33, 47, 81, 84, 91, 94},
    {2, 15, 16, 45, 46},
    {5, 6, 18, 38, 55, 95},
    {11, 32, 63, 67, 76},
    {11, 26, 36, 61, 76, 97},
    {13, 81, 84, 90, 91},
    {41, 49, 54, 65, 86},
    {77, 78, 79, 93, 100},
    {23, 37, 45, 61, 66},
    {3, 26, 56, 58, 61},
    {25, 56, 58, 67, 74},
    {17, 20, 75, 82, 88},
    {9, 12, 39, 75, 88},
    {3, 34, 49, 54, 65},
    {4, 17, 20, 85, 96},
    {23, 47, 57, 63, 67, 80},
    {12, 14, 40, 79, 88},
    {1, 2, 29, 51, 66},
    {2, 15, 16, 29, 73},
    {8, 43, 57, 63, 80},
    {1, 2, 51, 53, 89},
    {34, 41, 54, 65, 86},
    {5, 59, 64, 78, 95},
    {1, 7, 45, 48, 53},
    {19, 60, 69, 70, 93},
    {1, 7, 51, 68, 89},
    {34, 41, 49, 65, 86, 95},
    {5, 10, 24, 30, 83},
    {3, 25, 37, 58, 62},
    {8, 63, 67, 74, 80},
    {3, 25, 37, 56, 62},
    {50, 64, 78, 79, 93, 95},
    {19, 52, 69, 70, 93},
    {23, 26, 32, 36, 37},
    {3, 13, 37, 41, 56, 58},
    {8, 57, 67, 74, 80},
    {19, 59, 78, 93, 100},
    {34, 41, 49, 54, 86},
    {1, 7, 36, 45, 51},
    {8, 57, 63, 74, 80},
    {1, 7, 53, 89, 98},
    {19, 60, 71, 93, 100},
    {52, 60, 64, 69, 76, 93},
    {19, 69, 77, 85, 100},
    {9, 12, 77, 92, 96},
    {2, 15, 16, 29, 46},
    {8, 57, 63, 67, 80},
    {4, 17, 20, 39, 82},
    {11, 26, 31, 32, 97},
    {35, 71, 72, 78, 100},
    {19, 35, 64, 88, 93, 100},
    {14, 35, 44, 72, 87},
    {8, 57, 63, 67, 72, 74},
    {13, 29, 33, 84, 90, 91},
    {4, 17, 20, 39, 49, 75},
    {10, 16, 18, 24, 55, 73},
    {13, 33, 81, 91, 94},
    {19, 42, 69, 71, 100},
    {7, 34, 49, 54, 65},
    {14, 22, 35, 79, 99},
    {9, 12, 39, 40, 75},
    {1, 7, 48, 53, 68},
    {13, 24, 33, 81, 91},
    {13, 33, 81, 84, 94},
    {9, 12, 20, 72, 96},
    {19, 64, 69, 78, 100},
    {10, 13, 33, 84, 91},
    {18, 22, 30, 50, 59},
    {4, 9, 20, 42, 92},
    {21, 22, 32, 87, 99},
    {7, 49, 54, 68, 86},
    {21, 22, 87, 95, 97},
    {19, 69, 71, 77, 93}
];
