n = 20;
allowed = [
    {5, 6, 8, 9, 12, 13},
    {4, 6, 11, 17, 19},
    {2, 7, 10, 13, 14, 20},
    {2, 11, 16, 17, 19},
    {1, 6, 9, 11, 12},
    {1, 5, 9, 11, 17, 19},
    {3, 12, 13, 14, 20},
    {4, 10, 15, 16, 18},
    {1, 5, 6, 11, 12},
    {3, 8, 15, 18, 20},
    {4, 5, 6, 17, 19},
    {1, 5, 6, 9, 13},
    {3, 7, 12, 14, 20},
    {3, 7, 12, 13, 20},
    {4, 8, 10, 16, 18},
    {4, 8, 15, 18, 19},
    {2, 4, 6, 11, 19},
    {3, 8, 10, 15, 16},
    {4, 5, 6, 11, 17},
    {3, 7, 10, 13, 14}
];
