n = 50;
allowed = [
    {6, 32, 34, 38},
    {12, 14, 18, 19},
    {16, 37, 39, 46},
    {8, 20, 34, 36},
    {6, 22, 27, 30},
    {1, 5, 22, 27},
    {16, 33, 35, 39},
    {9, 13, 20, 43},
    {10, 13, 20, 31},
    {9, 35, 36, 49},
    {21, 26, 29, 33},
    {2, 18, 19, 47},
    {8, 9, 31, 43},
    {2, 18, 23, 44},
    {24, 25, 45, 50},
    {3, 7, 33, 39},
    {16, 28, 37, 40},
    {2, 14, 19, 47},
    {2, 12, 14, 18},
    {4, 8, 9, 43},
    {11, 26, 29, 32, 41},
    {5, 6, 21, 31, 32},
    {14, 18, 44, 48},
    {41, 42, 45, 50},
    {5, 15, 27, 30, 48},
    {11, 21, 29, 33},
    {1, 5, 6, 30},
    {17, 37, 40, 46},
    {11, 21, 32, 38},
    {5, 22, 27, 47},
    {9, 10, 13, 20, 45},
    {1, 21, 29, 38},
    {7, 11, 16, 17},
    {1, 4, 6, 38},
    {7, 16, 39, 49},
    {4, 10, 20, 49},
    {3, 17, 28, 46, 49},
    {1, 29, 32, 34},
    {3, 7, 16, 35},
    {17, 26, 28, 33},
    {4, 24, 34, 42},
    {2, 4, 24, 34, 41},
    {8, 9, 13, 20},
    {12, 14, 23, 26, 40},
    {15, 24, 27, 50},
    {3, 17, 28, 37},
    {2, 18, 22, 30},
    {7, 23, 28, 40, 44},
    {10, 21, 35, 36, 39},
    {15, 24, 25, 45}
];
