n = 20;
allowed = [
    {2, 3, 8, 18, 20},
    {1, 3, 5, 16, 20},
    {1, 2, 16, 18, 20},
    {7, 9, 14, 15, 19},
    {1, 2, 3, 4, 16, 18},
    {5, 7, 11, 12, 13},
    {8, 11, 12, 13, 15},
    {1, 3, 5, 7, 18},
    {4, 7, 8, 13, 15, 17},
    {1, 13, 14, 17, 18, 19},
    {6, 7, 8, 12, 13},
    {6, 7, 8, 11, 13},
    {6, 7, 11, 12, 15},
    {4, 10, 17, 18, 19},
    {4, 7, 8, 9, 13},
    {1, 2, 3, 5, 20},
    {1, 10, 14, 18, 19},
    {1, 3, 8, 10, 20},
    {1, 10, 14, 17, 18},
    {1, 2, 3, 16, 18}
];
