n = 30;
allowed = [
    {15, 21, 30},
    {1, 15, 30},
    {1, 4, 30},
    {3, 14, 25, 30},
    {11, 13, 28},
    {4, 13, 17, 20},
    {12, 23, 24, 26},
    {10, 16, 18},
    {4, 14, 16, 22},
    {8, 19, 24, 26},
    {5, 9, 22, 29},
    {7, 26, 27},
    {15, 20, 29},
    {3, 4, 9},
    {1, 2, 21},
    {8, 10, 18},
    {6, 13, 20},
    {8, 10, 12, 16},
    {24, 25, 26, 28},
    {6, 13, 17},
    {1, 15, 29},
    {4, 11, 14},
    {6, 7, 12, 22},
    {19, 25, 26},
    {19, 24, 26},
    {19, 24, 25},
    {2, 7, 19, 26},
    {5, 13, 20},
    {13, 15, 21},
    {1, 2, 21}
];
