n = 100;
allowed = [
    {19, 31, 65, 80, 94},
    {11, 76, 77, 86},
    {42, 64, 65, 66},
    {45, 68, 74, 84, 88},
    {14, 37, 38, 61},
    {10, 18, 41, 72, 96},
    {9, 10, 12, 91, 95},
    {20, 21, 30, 80},
    {29, 36, 66, 94},
    {7, 12, 67, 72},
    {2, 54, 76, 77, 86},
    {7, 10, 67, 71},
    {22, 26, 27, 28},
    {5, 25, 37, 91},
    {16, 53, 58, 76, 98},
    {39, 58, 87, 90},
    {26, 40, 79, 93, 100},
    {33, 45, 84, 88},
    {3, 65, 66, 94},
    {8, 21, 30, 83},
    {3, 24, 42, 64},
    {13, 26, 28, 79},
    {43, 59, 70, 73},
    {3, 14, 21, 42, 64},
    {37, 85, 95, 97},
    {17, 40, 79, 100},
    {26, 30, 40, 68, 100},
    {13, 22, 26, 46},
    {9, 31, 35, 99},
    {26, 40, 79, 100},
    {38, 71, 74, 99},
    {39, 62, 81, 90},
    {18, 56, 84, 88},
    {35, 42, 43, 48, 73},
    {34, 43, 48, 73},
    {19, 65, 66, 94},
    {14, 25, 91, 95},
    {4, 5, 14, 31, 61},
    {10, 16, 80, 87, 90},
    {26, 30, 79, 100},
    {6, 18, 33, 96},
    {3, 24, 64, 66},
    {23, 34, 48, 70},
    {18, 33, 41, 56, 57},
    {4, 68, 84, 88},
    {13, 28, 49, 93},
    {63, 69, 75, 78},
    {34, 35, 43, 56},
    {28, 46, 53, 93},
    {1, 13, 27, 28, 92},
    {55, 60, 62, 63, 75},
    {57, 78, 82, 92},
    {39, 46, 49, 54, 93},
    {52, 57, 75, 78},
    {51, 60, 77, 89},
    {33, 43, 48, 70},
    {52, 78, 82, 92},
    {15, 16, 72, 87},
    {23, 43, 70, 73, 92},
    {51, 55, 62, 63},
    {5, 7, 24, 27, 83},
    {32, 51, 60, 69},
    {47, 51, 60, 69},
    {3, 21, 24, 42},
    {3, 19, 66, 72, 94},
    {3, 36, 42, 65},
    {6, 10, 12, 72},
    {4, 45, 84, 88},
    {47, 51, 62, 63},
    {23, 43, 56, 59},
    {4, 68, 74, 91},
    {6, 67, 87, 96},
    {23, 34, 35, 43},
    {4, 51, 68, 71, 91},
    {47, 63, 69, 78, 79},
    {2, 11, 15, 98},
    {2, 55, 86, 89},
    {47, 52, 57, 75},
    {17, 26, 40, 100},
    {1, 8, 19, 20},
    {32, 47, 69, 70, 82},
    {52, 57, 81, 92},
    {21, 27, 30, 61},
    {4, 45, 68, 88},
    {25, 37, 77, 95, 97},
    {2, 11, 76, 77},
    {16, 58, 67, 72},
    {18, 33, 45, 84},
    {2, 55, 77, 98},
    {16, 32, 39, 98},
    {14, 25, 37, 71},
    {50, 52, 57, 82},
    {28, 46, 49, 53},
    {19, 36, 65, 66},
    {25, 37, 85, 97},
    {6, 18, 41, 72},
    {25, 37, 85, 95},
    {2, 15, 76, 89},
    {29, 35, 44, 48, 84},
    {26, 30, 40, 79}
];
