n = 30;
allowed = [
    {2, 3, 5, 8, 18, 20, 27},
    {1, 3, 5, 8, 16, 18, 20},
    {1, 2, 5, 8, 9, 16, 18, 20},
    {9, 14, 15, 24, 25, 26, 28},
    {1, 2, 3, 16, 18, 21, 27},
    {11, 12, 13, 21, 27, 29, 30},
    {11, 13, 15, 22, 26, 28, 29},
    {1, 7, 18, 24, 26, 27, 28},
    {4, 7, 15, 21, 22, 23, 26, 28},
    {1, 14, 17, 18, 19, 24, 25},
    {6, 7, 12, 13, 21, 29, 30},
    {6, 11, 13, 21, 27, 29, 30},
    {6, 7, 11, 12, 21, 22, 29},
    {4, 10, 17, 19, 24, 25, 28},
    {4, 7, 9, 22, 23, 26, 28},
    {1, 2, 3, 5, 18, 20, 27},
    {1, 10, 14, 18, 19, 20, 24},
    {1, 3, 8, 20, 24, 27, 28},
    {1, 10, 14, 17, 18, 24, 25},
    {1, 2, 3, 5, 16, 17, 18},
    {6, 11, 12, 13, 24, 27, 29, 30},
    {7, 9, 13, 15, 23, 26, 28},
    {4, 7, 9, 15, 22, 26, 28},
    {4, 8, 10, 18, 25, 26, 28},
    {2, 4, 10, 14, 17, 19, 24, 28},
    {7, 13, 15, 22, 23, 24, 28},
    {1, 5, 8, 11, 12, 18, 21},
    {4, 7, 8, 15, 18, 24, 26},
    {6, 7, 11, 12, 13, 21, 30},
    {6, 11, 12, 13, 21, 27, 29}
];
