n = 100;
allowed = [
    {15, 30, 32, 68},
    {1, 15, 65, 72},
    {46, 64, 84, 87},
    {71, 86, 93, 99},
    {11, 28, 48, 70},
    {17, 20, 35, 45},
    {12, 26, 31, 41},
    {39, 81, 83, 88},
    {14, 53, 54, 71},
    {69, 74, 90, 100},
    {5, 37, 70, 96},
    {7, 31, 41, 69, 78},
    {29, 51, 60, 75},
    {9, 54, 65, 71, 87},
    {1, 21, 68, 72},
    {39, 49, 83, 88},
    {6, 35, 42, 45},
    {33, 81, 90, 91},
    {24, 26, 55, 85},
    {6, 35, 56, 97},
    {1, 15, 32, 68},
    {37, 66, 71, 99},
    {40, 76, 78, 94},
    {19, 26, 55, 85},
    {24, 26, 55, 85},
    {19, 24, 55, 85},
    {31, 63, 65, 82},
    {36, 44, 48, 52},
    {51, 73, 75, 84, 96},
    {1, 10, 21, 32, 68},
    {7, 12, 27, 41},
    {1, 21, 30, 68},
    {18, 79, 90, 91},
    {39, 49, 56, 57, 67},
    {17, 20, 56, 91, 97},
    {28, 44, 52, 61},
    {11, 22, 66, 99},
    {58, 77, 92, 95},
    {16, 49, 83, 86, 88},
    {23, 58, 70, 78, 94},
    {7, 12, 31, 78},
    {61, 89, 97, 98},
    {16, 39, 49, 53},
    {28, 36, 52, 61},
    {6, 17, 47, 59},
    {3, 53, 84, 87},
    {6, 45, 50, 59},
    {5, 28, 36, 44},
    {16, 39, 83, 88},
    {47, 59, 76, 78},
    {29, 73, 75, 96},
    {36, 44, 61, 97},
    {14, 43, 46, 87},
    {9, 14, 53, 71},
    {24, 25, 26, 85},
    {6, 20, 35, 97},
    {34, 49, 67, 88},
    {38, 40, 92, 95},
    {17, 21, 45, 47, 50},
    {13, 15, 29, 57, 75},
    {36, 52, 89, 97},
    {55, 58, 92, 95},
    {13, 27, 64, 65, 84},
    {3, 63, 65, 84},
    {2, 27, 63, 64},
    {22, 37, 93, 99},
    {34, 57, 74, 82},
    {1, 15, 21, 32},
    {10, 74, 81, 90, 100},
    {5, 11, 13, 48, 54},
    {4, 22, 93, 99},
    {1, 2, 7, 15, 68},
    {29, 51, 80, 96},
    {10, 19, 67, 82},
    {29, 51, 73, 96},
    {23, 50, 78, 94},
    {23, 38, 92, 94},
    {41, 50, 76, 94},
    {2, 18, 33, 90, 91},
    {51, 73, 86, 96},
    {8, 40, 83, 88, 100},
    {10, 27, 67, 74, 80},
    {8, 39, 49, 88},
    {3, 46, 63, 64},
    {19, 24, 26, 47, 55},
    {4, 80, 93, 99},
    {3, 4, 14, 46},
    {8, 39, 49, 83},
    {3, 42, 52, 61, 98},
    {18, 33, 79, 91},
    {18, 33, 79, 90},
    {38, 58, 77, 95},
    {4, 71, 86, 99},
    {23, 40, 58, 78},
    {38, 58, 62, 92},
    {29, 51, 73, 75},
    {35, 42, 52, 61},
    {36, 52, 61, 89},
    {22, 66, 71, 93},
    {10, 67, 69, 81}
];
