n = 100;
allowed = [
    {10, 26, 41, 46, 57, 90, 93},
    {4, 27, 34, 49, 71, 80, 82},
    {42, 58, 65, 67, 69, 95, 97},
    {2, 14, 27, 28, 45, 71, 82},
    {1, 6, 26, 41, 56, 57, 80, 93},
    {12, 17, 29, 50, 66, 68, 99},
    {4, 16, 25, 28, 70, 71, 100},
    {36, 42, 44, 64, 84, 88, 98},
    {5, 13, 31, 34, 37, 39, 47, 49},
    {1, 24, 36, 41, 48, 59, 78},
    {24, 48, 62, 63, 78, 88, 95},
    {29, 32, 38, 68, 89, 92, 99},
    {3, 58, 65, 69, 76, 97, 98},
    {2, 4, 27, 28, 45, 71, 82},
    {21, 33, 53, 61, 74, 75, 86},
    {25, 30, 44, 55, 64, 70, 96},
    {6, 23, 29, 50, 66, 77, 92},
    {32, 37, 43, 81, 87, 89, 91},
    {14, 22, 27, 34, 45, 49, 51},
    {23, 35, 60, 66, 67, 72, 83},
    {15, 33, 53, 61, 73, 74, 75},
    {14, 19, 27, 34, 45, 49, 51},
    {17, 20, 35, 66, 72, 77, 83},
    {10, 11, 36, 48, 59, 63, 68, 78},
    {4, 7, 16, 28, 70, 71, 100},
    {1, 5, 41, 46, 57, 80, 93},
    {2, 4, 14, 45, 49, 71, 82},
    {4, 14, 25, 27, 45, 71, 100},
    {6, 12, 38, 68, 89, 92, 99},
    {16, 36, 44, 55, 64, 70, 96},
    {2, 5, 9, 34, 39, 49, 80},
    {18, 43, 79, 81, 87, 89, 92},
    {15, 21, 53, 61, 74, 75, 86},
    {2, 9, 19, 22, 31, 49, 51},
    {20, 58, 60, 67, 72, 83, 95},
    {10, 24, 44, 59, 64, 78, 96},
    {18, 39, 47, 56, 87, 91, 93},
    {12, 29, 40, 52, 68, 89, 99},
    {9, 31, 37, 47, 73, 87, 91},
    {43, 52, 54, 73, 85, 87, 91},
    {1, 5, 10, 26, 46, 57, 93},
    {3, 8, 11, 44, 84, 88, 98},
    {18, 32, 37, 54, 81, 87, 91},
    {8, 30, 36, 42, 55, 64, 84, 85},
    {2, 4, 14, 27, 49, 71, 82},
    {1, 47, 56, 57, 90, 93, 94},
    {37, 39, 46, 56, 57, 93, 94},
    {1, 10, 24, 46, 63, 78, 90},
    {2, 19, 27, 31, 34, 80, 82},
    {6, 17, 20, 23, 30, 66, 72, 83},
    {14, 16, 19, 22, 27, 34, 45, 49},
    {38, 40, 43, 54, 73, 85, 87},
    {15, 21, 33, 61, 74, 75, 86},
    {40, 43, 52, 73, 85, 87, 91},
    {8, 16, 30, 44, 64, 70, 84},
    {37, 46, 47, 57, 90, 93, 94},
    {1, 26, 46, 56, 90, 93, 94},
    {3, 35, 60, 65, 67, 69, 97},
    {1, 10, 24, 36, 41, 78, 96},
    {20, 35, 58, 67, 69, 72, 83},
    {15, 21, 33, 53, 73, 74, 75, 96},
    {11, 24, 35, 48, 63, 88, 95},
    {10, 11, 24, 48, 62, 78, 88},
    {8, 30, 36, 44, 59, 78, 96},
    {3, 13, 58, 60, 67, 69, 97},
    {17, 20, 23, 50, 72, 77, 92},
    {3, 4, 35, 58, 60, 69, 83, 97},
    {6, 12, 17, 29, 38, 89, 99},
    {3, 58, 60, 65, 67, 72, 97},
    {7, 16, 25, 30, 44, 55, 96},
    {2, 4, 14, 27, 28, 45, 82},
    {20, 23, 35, 58, 60, 67, 83},
    {21, 39, 54, 61, 85, 87, 91},
    {15, 21, 33, 53, 61, 75, 86},
    {15, 21, 33, 53, 61, 74, 86},
    {3, 13, 22, 42, 65, 69, 97, 98},
    {20, 23, 62, 66, 79, 81, 92},
    {10, 24, 36, 48, 59, 63, 88},
    {18, 23, 32, 77, 81, 89, 92},
    {2, 5, 26, 34, 41, 49, 82},
    {18, 32, 43, 77, 79, 89, 92},
    {2, 4, 27, 45, 49, 71, 80},
    {20, 23, 35, 58, 60, 67, 72},
    {3, 8, 42, 44, 64, 88, 98},
    {40, 42, 43, 52, 54, 73, 87, 91},
    {15, 21, 33, 53, 61, 74, 75},
    {18, 37, 43, 47, 54, 73, 91},
    {8, 11, 42, 63, 78, 84, 95},
    {12, 18, 29, 32, 79, 81, 92},
    {1, 46, 48, 56, 57, 93, 94},
    {18, 37, 39, 43, 47, 73, 87},
    {17, 32, 66, 77, 79, 81, 89},
    {1, 46, 47, 56, 57, 90, 94},
    {1, 46, 47, 56, 57, 90, 93},
    {3, 11, 20, 35, 62, 63, 88},
    {10, 30, 36, 44, 59, 64, 78},
    {3, 13, 58, 60, 65, 67, 69},
    {3, 8, 42, 44, 55, 76, 84},
    {6, 12, 29, 38, 68, 89, 92},
    {4, 7, 14, 25, 28, 45, 71}
];
