n = 30;
allowed = [
    {11, 16, 17, 19, 26},
    {8, 11, 15, 23, 25},
    {1, 11, 13, 17, 19},
    {5, 6, 9, 20, 30},
    {4, 6, 7, 20, 30},
    {4, 5, 20, 25, 30},
    {5, 6, 10, 24, 28},
    {10, 11, 18, 23, 24},
    {4, 5, 6, 10, 20, 30},
    {8, 13, 18, 24, 29},
    {2, 3, 8, 18, 23},
    {2, 14, 15, 25, 27},
    {8, 10, 16, 18, 24, 29},
    {2, 12, 15, 25, 27},
    {3, 12, 14, 21, 25, 27},
    {1, 12, 17, 19, 26},
    {1, 3, 4, 16, 19, 26},
    {8, 10, 13, 24, 29},
    {1, 11, 16, 17, 26},
    {4, 5, 6, 9, 30},
    {15, 20, 22, 25, 27},
    {14, 15, 20, 21, 27},
    {2, 6, 8, 18, 25},
    {7, 8, 10, 18, 28},
    {2, 6, 15, 20, 23},
    {1, 12, 16, 17, 19},
    {12, 14, 15, 21, 22},
    {5, 7, 10, 18, 24},
    {8, 10, 13, 18, 24},
    {4, 5, 6, 9, 20}
];
