n = 20;
allowed = [
    {2, 3, 6, 8, 13, 17, 18},
    {1, 3, 10, 11, 12, 16, 17},
    {1, 2, 10, 16, 17, 19, 20},
    {5, 8, 13, 14, 15, 18, 20},
    {4, 6, 8, 13, 15, 18, 20},
    {1, 4, 5, 8, 13, 17, 18},
    {3, 9, 10, 14, 15, 19, 20},
    {1, 4, 5, 6, 13, 15, 18},
    {7, 10, 13, 14, 15, 16, 19, 20},
    {2, 3, 12, 16, 17, 19, 20},
    {2, 3, 10, 12, 16, 17, 19},
    {2, 3, 10, 11, 16, 17, 19},
    {1, 4, 5, 6, 8, 17, 18},
    {4, 5, 7, 9, 10, 15, 20},
    {4, 5, 7, 8, 14, 18, 20},
    {1, 2, 3, 10, 12, 17, 19},
    {1, 2, 3, 10, 12, 16, 19},
    {1, 4, 5, 6, 8, 13, 15},
    {2, 3, 10, 12, 16, 17, 20},
    {3, 4, 5, 7, 10, 14, 15}
];
