n = 100;
allowed = [
    {3, 23, 41, 91},
    {7, 10, 37, 45},
    {1, 23, 41, 91},
    {33, 62, 72, 88},
    {17, 36, 80, 98},
    {8, 12, 29, 54},
    {37, 45, 58, 60},
    {6, 29, 82, 90},
    {33, 36, 51, 52},
    {2, 7, 30, 37, 84},
    {28, 44, 72, 93},
    {6, 22, 54, 75},
    {32, 34, 55, 76},
    {26, 35, 50, 64},
    {2, 18, 25, 68, 89},
    {14, 26, 60, 81},
    {5, 36, 80, 98},
    {15, 25, 68, 89},
    {24, 46, 61, 100},
    {56, 83, 84, 99},
    {44, 49, 85, 88},
    {12, 54, 59, 75},
    {39, 41, 65, 91},
    {19, 46, 61, 90},
    {18, 68, 69, 89},
    {14, 35, 43, 64},
    {32, 34, 55, 76},
    {11, 30, 31, 93},
    {6, 8, 54, 66},
    {31, 74, 79, 93},
    {28, 30, 79, 93},
    {13, 22, 34, 55, 76},
    {9, 51, 52, 62},
    {13, 32, 55, 76},
    {14, 26, 92, 97},
    {9, 17, 52, 80},
    {7, 45, 58, 79},
    {15, 42, 63, 70, 84},
    {23, 41, 65, 91},
    {43, 77, 94, 95},
    {1, 3, 23, 91},
    {38, 63, 70, 84},
    {26, 40, 77, 94},
    {4, 67, 72, 88},
    {7, 37, 58, 60},
    {19, 24, 61, 90},
    {59, 75, 87, 96},
    {35, 54, 92, 97},
    {21, 73, 85, 88},
    {14, 26, 58, 64},
    {9, 33, 62, 88},
    {9, 33, 36, 98},
    {70, 71, 78, 86},
    {6, 48, 92, 97},
    {27, 32, 34, 76},
    {20, 57, 83, 99},
    {56, 69, 83, 99},
    {7, 37, 45, 52, 60},
    {22, 47, 75, 87},
    {7, 37, 58, 74},
    {19, 24, 46, 100},
    {4, 39, 51, 72, 88},
    {38, 42, 70, 84},
    {14, 26, 35, 50},
    {23, 39, 41, 42, 91},
    {6, 12, 29, 45, 100},
    {44, 72, 73, 81},
    {15, 18, 25, 89},
    {25, 47, 57, 68, 85},
    {38, 42, 53, 63},
    {75, 78, 86, 87},
    {4, 44, 62, 88},
    {40, 43, 77, 94},
    {37, 58, 60, 79},
    {12, 22, 59, 87},
    {27, 32, 34, 55},
    {40, 43, 94, 95},
    {63, 71, 86, 87},
    {30, 37, 60, 74},
    {5, 17, 36, 98},
    {16, 58, 60, 74},
    {8, 13, 24, 90},
    {20, 56, 57, 60, 99},
    {20, 38, 42, 63},
    {21, 49, 51, 88},
    {53, 71, 78, 87},
    {71, 75, 78, 86},
    {4, 51, 62, 72},
    {15, 18, 25, 68},
    {8, 24, 29, 82},
    {1, 23, 41, 65},
    {48, 54, 95, 97},
    {28, 30, 31, 79},
    {40, 43, 73, 77},
    {40, 77, 92, 97},
    {40, 73, 90, 94, 95},
    {35, 40, 86, 92, 95},
    {5, 17, 52, 80, 89},
    {20, 56, 57, 83},
    {19, 29, 61, 66}
];
