n = 100;
allowed = [
    {29, 43, 48, 56},
    {18, 50, 61, 95},
    {21, 26, 33, 45, 68},
    {19, 22, 87, 97},
    {80, 86, 92, 98},
    {3, 13, 21, 39},
    {54, 71, 91, 99},
    {39, 41, 58, 78, 90},
    {16, 25, 38, 66, 75},
    {24, 28, 82, 83},
    {14, 24, 70, 73},
    {17, 36, 42, 70, 89},
    {6, 39, 64, 100},
    {11, 40, 73, 96},
    {47, 66, 76, 81},
    {9, 47, 66, 81},
    {18, 42, 89, 95},
    {2, 55, 61, 79, 95},
    {4, 22, 87, 97},
    {1, 2, 29, 56, 80},
    {3, 6, 26, 39},
    {4, 19, 72, 87},
    {30, 34, 67, 77},
    {10, 32, 65, 83},
    {9, 27, 63, 75},
    {3, 33, 68, 93},
    {63, 75, 79, 100},
    {10, 24, 82, 83},
    {1, 20, 48, 56},
    {23, 34, 69, 77},
    {11, 23, 34, 67, 76},
    {15, 24, 37, 65, 83},
    {3, 26, 68, 93},
    {23, 30, 31, 67},
    {18, 44, 55, 61},
    {4, 22, 51, 72, 87},
    {24, 32, 65, 83},
    {26, 49, 59, 68, 89},
    {3, 6, 13, 21},
    {5, 88, 96, 98},
    {8, 19, 69, 90},
    {12, 17, 94, 95},
    {86, 88, 91, 99},
    {10, 28, 82, 94},
    {13, 23, 30, 67, 77},
    {57, 59, 70, 71, 78},
    {48, 66, 76, 81},
    {1, 29, 47, 56},
    {26, 33, 60, 68, 93},
    {2, 18, 51, 95},
    {2, 3, 49, 50, 93},
    {7, 54, 74, 85},
    {8, 46, 58, 78},
    {7, 71, 91, 99},
    {2, 18, 35, 61},
    {1, 20, 29, 48},
    {46, 59, 71, 74},
    {8, 30, 34, 90},
    {46, 57, 72, 78},
    {2, 18, 61, 84},
    {2, 18, 35, 55},
    {40, 52, 74, 85, 96},
    {27, 75, 79, 100},
    {6, 13, 16, 39, 78},
    {24, 32, 37, 83},
    {15, 16, 47, 81},
    {23, 31, 34, 76},
    {26, 33, 49, 93},
    {30, 41, 77, 90},
    {5, 12, 80, 92},
    {7, 46, 54, 99},
    {4, 22, 59, 87},
    {11, 14, 37, 96},
    {52, 57, 62, 85},
    {25, 27, 63, 100},
    {23, 31, 34, 67},
    {23, 30, 34, 69},
    {8, 46, 53, 59},
    {13, 27, 63, 100},
    {5, 20, 86, 92},
    {15, 16, 47, 66},
    {10, 28, 44, 83},
    {10, 24, 28, 82},
    {2, 18, 60, 61},
    {52, 57, 62, 74},
    {5, 43, 80, 92},
    {4, 19, 22, 97},
    {40, 43, 91, 98},
    {12, 17, 38, 95},
    {8, 30, 41, 69},
    {7, 54, 71, 99},
    {5, 12, 70, 80, 86},
    {26, 33, 49, 68},
    {8, 17, 42, 44, 82},
    {2, 17, 18, 89},
    {14, 40, 88, 98},
    {4, 19, 22, 74, 87},
    {5, 40, 57, 86, 88},
    {7, 54, 55, 71, 91},
    {13, 27, 63, 79}
];
