n = 30;
allowed = [
    {7, 10, 14, 15, 17, 22, 24, 25, 27, 30},
    {8, 11, 12, 13, 14, 15, 16, 19, 20, 21},
    {4, 7, 9, 17, 18, 23, 25, 27, 28, 29},
    {3, 7, 9, 17, 18, 23, 25, 27, 28, 29},
    {3, 6, 7, 8, 16, 17, 18, 23, 26, 28},
    {3, 5, 7, 16, 17, 18, 23, 26, 28, 29},
    {1, 3, 4, 16, 17, 24, 25, 27, 28, 29},
    {2, 11, 12, 13, 15, 16, 19, 20, 21, 26},
    {3, 4, 7, 18, 24, 25, 27, 28, 29, 30},
    {1, 7, 14, 15, 21, 22, 24, 25, 27, 30},
    {2, 8, 12, 13, 15, 16, 19, 20, 21, 26},
    {2, 8, 11, 13, 15, 16, 19, 20, 21, 26},
    {2, 8, 11, 12, 15, 16, 19, 20, 21, 26},
    {1, 7, 10, 15, 21, 22, 24, 25, 27, 30},
    {1, 2, 10, 11, 12, 14, 16, 17, 19, 21},
    {5, 6, 7, 8, 15, 17, 21, 23, 25, 26},
    {3, 7, 16, 23, 24, 25, 26, 27, 28, 29},
    {3, 4, 6, 7, 9, 17, 23, 25, 28, 29},
    {2, 8, 11, 12, 13, 15, 16, 20, 21, 26},
    {2, 8, 11, 12, 13, 15, 16, 19, 21, 26},
    {1, 2, 8, 11, 12, 14, 15, 16, 19, 26},
    {1, 7, 10, 13, 14, 17, 24, 25, 27, 29, 30},
    {3, 4, 5, 6, 7, 16, 17, 18, 26, 28},
    {1, 3, 7, 17, 22, 25, 27, 28, 29, 30},
    {1, 3, 4, 7, 17, 22, 24, 27, 28, 29},
    {5, 6, 7, 8, 15, 16, 17, 21, 23, 25},
    {1, 3, 7, 9, 17, 22, 24, 25, 29, 30},
    {3, 4, 7, 9, 17, 18, 23, 25, 27, 29},
    {3, 4, 7, 9, 17, 18, 24, 25, 27, 28},
    {1, 7, 10, 14, 17, 22, 24, 25, 27, 29}
];
