n = 30;
allowed = [
    {2, 7, 15, 16, 23, 27, 29},
    {1, 6, 15, 16, 18, 27, 29},
    {1, 7, 11, 23, 25, 26, 29},
    {9, 12, 14, 17, 19, 20, 22},
    {6, 10, 13, 18, 24, 28, 30},
    {15, 18, 21, 22, 27, 29, 30},
    {1, 2, 3, 4, 15, 16, 23, 29},
    {3, 11, 12, 14, 21, 25, 26},
    {4, 12, 14, 17, 19, 20, 22},
    {5, 6, 12, 13, 18, 24, 28, 30},
    {3, 8, 14, 21, 25, 26, 27},
    {4, 9, 14, 17, 19, 20, 22},
    {5, 6, 10, 15, 24, 28, 30},
    {9, 11, 12, 13, 19, 20, 21, 22},
    {2, 6, 16, 18, 27, 29, 30},
    {1, 2, 6, 11, 15, 18, 29, 30},
    {4, 9, 12, 14, 19, 20, 22},
    {6, 15, 21, 22, 27, 29, 30},
    {4, 9, 12, 14, 17, 20, 22},
    {4, 9, 12, 14, 17, 19, 22},
    {6, 15, 18, 22, 27, 29, 30},
    {5, 6, 14, 18, 21, 27, 30},
    {1, 2, 3, 7, 26, 27, 29},
    {5, 10, 13, 15, 16, 28, 30},
    {3, 8, 11, 21, 23, 26, 27},
    {3, 11, 21, 22, 23, 25, 27},
    {6, 15, 18, 21, 22, 29, 30},
    {5, 10, 13, 18, 19, 24, 30},
    {1, 2, 6, 15, 16, 18, 27},
    {5, 6, 15, 18, 21, 22, 27}
];
