n = 30;
allowed = [
    {2, 4, 5, 10, 17, 18, 20, 22, 23, 24},
    {1, 5, 9, 10, 12, 17, 18, 23, 24, 25},
    {5, 7, 8, 11, 13, 14, 19, 22, 23, 28},
    {1, 2, 5, 9, 10, 17, 18, 20, 23, 24, 25},
    {1, 2, 3, 8, 13, 20, 22, 23, 24, 28},
    {7, 8, 12, 14, 15, 19, 21, 22, 28, 30},
    {6, 8, 12, 14, 19, 21, 22, 23, 28, 30},
    {3, 5, 7, 11, 13, 14, 18, 19, 22, 23, 28},
    {10, 12, 15, 16, 17, 18, 25, 26, 27, 29},
    {2, 9, 12, 15, 16, 17, 18, 24, 25, 26},
    {3, 5, 7, 8, 13, 14, 19, 22, 23, 28},
    {6, 7, 9, 10, 14, 15, 21, 22, 23, 30},
    {1, 3, 5, 8, 11, 20, 22, 23, 24, 28},
    {6, 7, 8, 12, 19, 21, 22, 23, 28, 30},
    {9, 10, 12, 16, 17, 18, 25, 26, 27, 29},
    {9, 10, 12, 15, 17, 18, 25, 26, 27, 29},
    {1, 2, 9, 10, 15, 16, 18, 24, 25, 26},
    {2, 9, 10, 15, 16, 17, 24, 25, 26, 27},
    {3, 6, 7, 8, 11, 14, 21, 22, 23, 28},
    {1, 2, 3, 5, 8, 13, 22, 23, 24, 28},
    {6, 7, 8, 12, 14, 19, 22, 23, 28, 30},
    {3, 7, 8, 11, 12, 14, 19, 21, 23, 28},
    {1, 2, 3, 5, 7, 8, 12, 22, 24, 28},
    {1, 2, 5, 9, 10, 17, 18, 22, 23, 25, 27},
    {9, 10, 12, 15, 16, 17, 18, 26, 27, 29},
    {9, 10, 12, 15, 16, 17, 18, 25, 27, 29},
    {4, 9, 10, 12, 15, 16, 18, 25, 26, 29, 30},
    {3, 7, 8, 11, 13, 14, 19, 21, 22, 23},
    {9, 10, 12, 15, 16, 18, 25, 26, 27, 30},
    {6, 7, 9, 12, 14, 15, 16, 21, 22, 29}
];
