n = 20;
allowed = [
    {2, 3, 4, 13, 15},
    {1, 3, 4, 13, 15},
    {1, 2, 4, 14, 15},
    {1, 2, 3, 14, 15},
    {6, 11, 13, 15, 20},
    {2, 12, 13, 15, 17, 20},
    {2, 10, 12, 15, 19},
    {3, 10, 16, 18, 19},
    {1, 3, 4, 14, 16, 20},
    {7, 8, 16, 18, 19},
    {1, 4, 5, 6, 13, 15},
    {1, 2, 7, 15, 19},
    {1, 5, 6, 15, 20},
    {1, 3, 4, 9, 15},
    {1, 2, 3, 4, 13},
    {3, 8, 9, 10, 18},
    {5, 6, 13, 15, 20},
    {7, 8, 10, 16, 19},
    {2, 7, 10, 12, 18},
    {5, 6, 13, 15, 17}
];
