n = 50;
allowed = [
    {20, 29, 43, 47, 48},
    {17, 18, 35, 42, 50},
    {6, 21, 26, 33, 39},
    {8, 19, 22, 36, 41},
    {11, 12, 14, 40, 43},
    {3, 13, 21, 26, 39},
    {1, 5, 40, 43, 46},
    {23, 30, 31, 34, 41},
    {15, 16, 25, 27, 47},
    {24, 28, 32, 42, 44},
    {5, 10, 14, 24, 28},
    {11, 17, 28, 38, 42},
    {6, 16, 21, 27, 39},
    {5, 11, 24, 37, 40},
    {9, 23, 31, 45, 47},
    {9, 13, 15, 47, 48},
    {2, 12, 18, 35, 42, 50},
    {2, 17, 35, 42, 50},
    {4, 8, 22, 36, 41},
    {1, 9, 29, 38, 43, 48},
    {3, 6, 26, 33, 39, 46},
    {4, 8, 19, 26, 36, 41},
    {8, 30, 31, 34, 45},
    {10, 11, 28, 32, 37},
    {2, 9, 13, 15, 16, 27},
    {3, 6, 21, 33, 49},
    {9, 13, 16, 25, 39},
    {10, 24, 30, 32, 42, 44},
    {1, 20, 43, 47, 48},
    {8, 23, 31, 34, 45},
    {8, 23, 30, 34, 47},
    {10, 11, 24, 28, 37},
    {3, 6, 21, 26, 49},
    {8, 23, 30, 31, 45},
    {2, 17, 18, 25, 42, 44},
    {4, 8, 19, 22, 41},
    {4, 10, 11, 24, 28, 32},
    {12, 20, 26, 33, 49},
    {3, 6, 13, 21, 26},
    {5, 7, 11, 14, 43},
    {4, 8, 19, 22, 30},
    {12, 17, 18, 35, 44},
    {1, 5, 7, 29, 40},
    {10, 24, 28, 35, 42},
    {1, 15, 23, 30, 31, 34},
    {7, 8, 17, 22, 41, 43},
    {1, 15, 16, 31, 48},
    {1, 20, 29, 43, 47},
    {3, 26, 33, 38, 50},
    {2, 17, 18, 38, 49}
];
