n = 100;
allowed = [
    {20, 29, 43, 47, 48, 56, 86},
    {18, 50, 51, 55, 60, 61, 95},
    {6, 21, 26, 33, 39, 68, 93},
    {19, 22, 36, 41, 72, 87, 97},
    {40, 70, 80, 86, 88, 92, 98},
    {3, 13, 21, 26, 33, 39, 64},
    {43, 52, 54, 71, 88, 91, 99},
    {30, 41, 53, 58, 69, 78, 90},
    {15, 16, 25, 66, 75, 81, 100},
    {24, 28, 32, 44, 65, 82, 83},
    {5, 14, 24, 70, 73, 92, 98},
    {17, 42, 70, 89, 92, 94, 95},
    {6, 16, 21, 39, 64, 79, 100},
    {5, 11, 40, 73, 86, 88, 96, 98},
    {23, 45, 47, 66, 67, 76, 81},
    {9, 13, 15, 47, 64, 66, 81},
    {2, 12, 14, 18, 42, 89, 94, 95},
    {2, 17, 35, 50, 55, 61, 95},
    {4, 22, 36, 41, 72, 87, 97},
    {1, 29, 48, 56, 80, 86, 92},
    {3, 6, 13, 26, 33, 39, 68},
    {4, 19, 36, 41, 72, 87, 97},
    {30, 31, 34, 58, 67, 76, 77},
    {10, 11, 28, 32, 61, 65, 82, 83},
    {9, 16, 27, 63, 66, 75, 100},
    {3, 6, 21, 33, 49, 68, 93},
    {9, 13, 25, 63, 75, 79, 84, 100},
    {10, 24, 32, 44, 65, 82, 83},
    {1, 20, 43, 48, 56, 80, 86},
    {23, 34, 58, 67, 69, 77, 90},
    {23, 30, 34, 58, 67, 76, 77},
    {10, 24, 28, 37, 65, 82, 83},
    {3, 6, 21, 26, 49, 68, 93},
    {23, 30, 31, 58, 67, 76, 77},
    {18, 42, 44, 55, 61, 94, 95},
    {4, 19, 22, 59, 72, 87, 97},
    {10, 11, 24, 32, 65, 73, 83},
    {20, 26, 33, 49, 68, 89, 93},
    {3, 6, 13, 21, 26, 33, 64, 100},
    {5, 7, 14, 88, 91, 96, 98},
    {4, 8, 19, 22, 69, 90, 97},
    {12, 17, 18, 44, 89, 94, 95},
    {1, 7, 54, 86, 88, 91, 99},
    {10, 28, 35, 42, 79, 82, 83, 94},
    {23, 30, 31, 34, 65, 67, 69, 77},
    {53, 54, 57, 59, 71, 78, 99},
    {15, 31, 48, 66, 67, 76, 81},
    {1, 20, 29, 47, 56, 76, 81},
    {3, 26, 33, 38, 50, 68, 93},
    {2, 17, 18, 49, 51, 61, 95},
    {2, 18, 49, 50, 60, 93, 95},
    {7, 54, 57, 71, 74, 85, 91},
    {8, 34, 46, 58, 59, 71, 78},
    {7, 46, 52, 57, 71, 91, 99},
    {2, 17, 18, 35, 42, 61, 95},
    {1, 20, 29, 47, 48, 64, 80},
    {46, 52, 54, 59, 71, 74, 78},
    {8, 23, 30, 31, 34, 53, 90},
    {8, 46, 53, 57, 71, 72, 78},
    {2, 18, 50, 51, 55, 61, 84},
    {2, 18, 35, 55, 60, 84, 95},
    {40, 52, 54, 57, 74, 85, 95, 96},
    {9, 13, 25, 27, 75, 79, 100},
    {6, 13, 16, 21, 26, 39, 56},
    {10, 24, 28, 32, 37, 82, 83},
    {9, 15, 16, 25, 47, 76, 81},
    {23, 30, 31, 34, 58, 76, 77},
    {3, 21, 26, 33, 38, 49, 93},
    {8, 23, 30, 41, 58, 77, 90},
    {5, 11, 12, 80, 89, 92, 98},
    {7, 46, 52, 54, 57, 91, 99},
    {4, 19, 22, 36, 59, 78, 87},
    {11, 14, 24, 37, 40, 96, 98},
    {7, 52, 54, 57, 62, 71, 85},
    {9, 16, 25, 27, 63, 79, 100},
    {23, 30, 31, 34, 47, 67, 77},
    {23, 30, 34, 45, 67, 69, 90},
    {8, 46, 53, 58, 59, 72, 90},
    {6, 13, 27, 39, 63, 75, 100},
    {5, 20, 29, 70, 86, 92, 98},
    {9, 15, 16, 47, 48, 66, 76},
    {10, 24, 28, 32, 44, 83, 94},
    {10, 24, 28, 32, 44, 65, 82},
    {2, 18, 50, 51, 55, 60, 61, 85},
    {52, 54, 57, 62, 71, 74, 96},
    {5, 20, 43, 78, 80, 88, 92, 98},
    {4, 19, 22, 36, 41, 72, 97},
    {5, 7, 40, 43, 86, 91, 98},
    {12, 17, 38, 42, 70, 94, 95},
    {8, 30, 34, 41, 58, 69, 77},
    {7, 12, 43, 52, 54, 71, 88, 99},
    {5, 11, 12, 70, 80, 86, 98},
    {3, 21, 26, 33, 49, 51, 68},
    {10, 12, 17, 28, 42, 44, 82},
    {2, 17, 18, 42, 50, 61, 89},
    {14, 40, 52, 73, 88, 91, 98},
    {4, 19, 22, 36, 41, 72, 87},
    {5, 14, 40, 86, 88, 92, 96},
    {7, 43, 46, 54, 71, 88, 91},
    {9, 13, 27, 39, 63, 75, 79}
];
