n = 50;
allowed = [
    {19, 35, 42},
    {23, 25, 36, 37},
    {42, 46, 48},
    {20, 30, 39, 46},
    {4, 6, 40},
    {4, 5, 31},
    {28, 40, 45},
    {10, 18, 33},
    {30, 36, 39, 44},
    {18, 24, 49},
    {8, 33, 37},
    {14, 15, 25, 32},
    {3, 29, 33, 50},
    {12, 15, 32},
    {14, 25, 32},
    {17, 19, 26, 47},
    {19, 26, 27, 46},
    {8, 10, 16, 49},
    {1, 21, 35, 42},
    {4, 39, 41},
    {22, 41, 43},
    {21, 41, 43},
    {2, 8, 25},
    {10, 38, 49},
    {2, 15, 23},
    {16, 17, 19},
    {9, 12, 14, 15},
    {7, 15, 38, 45},
    {10, 13, 50},
    {4, 9, 39},
    {5, 6, 49},
    {12, 14, 15},
    {8, 11, 18},
    {7, 26, 36, 40},
    {1, 19, 44},
    {9, 30, 34},
    {2, 11, 44},
    {24, 28, 45},
    {4, 9, 30},
    {5, 7, 34},
    {4, 20, 21},
    {1, 46, 48},
    {21, 22, 41},
    {1, 18, 35, 37},
    {7, 28, 38},
    {17, 42, 48},
    {12, 14, 29, 32},
    {1, 42, 45, 46},
    {10, 18, 24},
    {13, 29, 33}
];
