n = 50;
allowed = [
    {5, 9, 12, 23, 37},
    {4, 6, 11, 17, 34},
    {7, 41, 43, 47, 49},
    {11, 19, 21, 36, 42},
    {6, 9, 12, 23, 39},
    {5, 9, 11, 23, 29},
    {13, 14, 35, 48, 49},
    {15, 16, 38, 40, 50},
    {5, 6, 12, 23, 46},
    {18, 24, 27, 28, 32},
    {4, 6, 19, 29, 36},
    {1, 5, 9, 23, 37},
    {7, 14, 22, 44, 49},
    {7, 35, 44, 48, 49},
    {8, 16, 21, 38, 40},
    {8, 15, 21, 38, 45},
    {2, 6, 11, 19, 29, 46},
    {3, 10, 25, 27, 28, 32},
    {4, 11, 29, 36, 42},
    {7, 14, 26, 35, 49},
    {8, 15, 16, 38, 45},
    {3, 12, 13, 17, 39, 43},
    {1, 5, 9, 12, 46},
    {10, 18, 28, 32, 33},
    {10, 18, 27, 40, 50},
    {3, 20, 24, 41, 49},
    {10, 18, 25, 32, 50},
    {10, 18, 24, 32, 33},
    {5, 6, 11, 19, 30, 39},
    {11, 19, 31, 36, 42},
    {19, 30, 33, 39, 42},
    {10, 18, 24, 27, 28},
    {10, 24, 28, 41, 47},
    {2, 4, 17, 36, 45},
    {7, 14, 20, 48, 49},
    {4, 11, 16, 19, 21, 42},
    {1, 5, 9, 12, 23},
    {8, 15, 16, 21, 40},
    {5, 12, 22, 29, 31},
    {8, 15, 16, 38, 50},
    {3, 20, 26, 47, 49},
    {11, 19, 30, 31, 36},
    {3, 13, 22, 47, 49},
    {2, 7, 13, 14, 35, 48},
    {8, 15, 16, 21, 28, 38},
    {1, 5, 6, 9, 23, 34},
    {3, 33, 41, 43, 49},
    {7, 14, 20, 35, 44},
    {3, 7, 13, 14, 22, 41},
    {8, 15, 25, 38, 40}
];
