n = 100;
allowed = [
    {51, 52, 61, 73},
    {20, 32, 42, 64},
    {35, 50, 53},
    {23, 32, 75},
    {63, 76, 90},
    {30, 43, 49, 81},
    {10, 62, 91},
    {28, 34, 55},
    {61, 80, 88},
    {7, 46, 91},
    {47, 65, 67, 99},
    {6, 18, 24, 30},
    {17, 24, 70, 100},
    {29, 57, 85},
    {3, 33, 53},
    {22, 54, 68},
    {13, 67, 100},
    {39, 66, 90},
    {41, 49, 81},
    {52, 62, 93},
    {27, 59, 75, 86},
    {68, 71, 85},
    {4, 25, 32},
    {6, 12, 30},
    {19, 23, 48},
    {45, 84, 100},
    {59, 60, 86},
    {53, 55, 83},
    {14, 57, 85},
    {6, 69, 89},
    {45, 46, 58, 67},
    {4, 23, 25, 36},
    {15, 70, 96},
    {4, 8, 75},
    {3, 44, 50},
    {39, 66, 92, 93},
    {65, 77, 99},
    {19, 25, 48, 90},
    {66, 72, 98},
    {43, 75, 88},
    {19, 49, 81},
    {2, 12, 64},
    {34, 40, 75},
    {50, 53, 56},
    {26, 70, 100},
    {7, 10, 91},
    {27, 59, 60},
    {25, 27, 59},
    {19, 41, 81},
    {35, 38, 44, 56},
    {1, 37, 73},
    {11, 20, 74, 93},
    {3, 15, 44},
    {33, 70, 96},
    {8, 28, 35, 53},
    {44, 50, 69},
    {14, 29, 85},
    {31, 65, 67},
    {27, 48, 60},
    {2, 27, 47, 59},
    {9, 87, 88},
    {7, 20, 73, 93},
    {5, 14, 76},
    {2, 20, 42},
    {58, 78, 99},
    {18, 39, 71, 90},
    {17, 31, 58},
    {16, 22, 85},
    {30, 89, 95},
    {13, 33, 45, 100},
    {22, 29, 31, 85},
    {39, 74, 79, 98},
    {1, 9, 51},
    {52, 93, 98},
    {4, 23, 34},
    {5, 14, 63},
    {78, 97, 99},
    {77, 97, 99},
    {41, 69, 95},
    {9, 42, 73, 88},
    {19, 37, 41, 49},
    {58, 78, 95, 97},
    {15, 26, 84},
    {26, 45, 83},
    {22, 29, 57},
    {21, 27, 59},
    {4, 9, 61, 88},
    {9, 80, 87},
    {6, 30, 69},
    {5, 18, 66},
    {7, 10, 46},
    {27, 47, 94},
    {20, 52, 74},
    {27, 86, 92, 96},
    {41, 69, 79, 80},
    {33, 54, 70, 82},
    {77, 78, 82},
    {39, 72, 74},
    {65, 77, 78},
    {17, 45, 70}
];
