n = 30;
allowed = [
    {11, 15, 19, 25, 29},
    {5, 9, 13, 22},
    {4, 16, 24, 26},
    {3, 16, 24, 26},
    {2, 9, 13, 22},
    {4, 18, 23, 26},
    {10, 12, 17, 21},
    {7, 12, 17, 21},
    {2, 5, 12, 13, 22},
    {21, 23, 26, 28},
    {1, 15, 25, 27},
    {7, 8, 10, 21},
    {2, 5, 9, 22},
    {1, 11, 15, 21, 25},
    {1, 11, 25, 27},
    {3, 4, 21, 24, 26},
    {7, 16, 21, 27},
    {3, 4, 6, 23},
    {1, 11, 13, 25},
    {6, 14, 18, 23, 28},
    {7, 10, 16, 26},
    {5, 9, 13, 29},
    {6, 10, 18, 26},
    {3, 4, 16, 19, 26},
    {1, 11, 15, 19},
    {3, 4, 16, 21},
    {1, 11, 15, 17},
    {10, 20, 21, 23, 26},
    {9, 13, 22, 30},
    {5, 9, 22, 28, 29}
];
