n = 100;
allowed = [
    {3, 8, 19, 20, 21, 36, 65, 66, 80, 81, 94},
    {11, 15, 55, 62, 76, 77, 86, 89, 90, 98},
    {19, 20, 21, 24, 36, 42, 64, 65, 66, 94},
    {6, 18, 33, 45, 68, 71, 74, 84, 88, 99},
    {14, 24, 25, 31, 37, 38, 61, 74, 83, 91},
    {4, 18, 33, 41, 45, 67, 72, 84, 88, 96},
    {10, 12, 25, 37, 67, 71, 85, 91, 95, 97},
    {1, 17, 20, 21, 30, 40, 79, 80, 83, 100},
    {3, 29, 31, 35, 36, 42, 65, 66, 94, 99},
    {6, 7, 12, 16, 39, 45, 67, 71, 72, 87},
    {2, 15, 16, 55, 76, 77, 86, 89, 90, 98},
    {7, 10, 39, 45, 67, 71, 72, 74, 91, 95},
    {17, 22, 26, 27, 28, 40, 46, 79, 93, 100},
    {5, 25, 37, 38, 71, 74, 85, 91, 95, 97},
    {2, 11, 16, 39, 58, 76, 87, 89, 90, 98},
    {10, 15, 39, 58, 67, 72, 76, 87, 90, 98},
    {8, 13, 22, 26, 27, 28, 30, 40, 79, 100},
    {4, 6, 33, 41, 44, 45, 56, 68, 84, 88},
    {1, 3, 21, 24, 36, 42, 64, 65, 66, 94},
    {3, 8, 19, 21, 24, 30, 42, 61, 64, 83},
    {3, 19, 20, 24, 42, 61, 64, 65, 66, 83},
    {13, 17, 26, 28, 40, 46, 49, 79, 93, 100},
    {34, 35, 43, 44, 48, 56, 59, 70, 73, 88},
    {3, 19, 21, 38, 42, 61, 64, 65, 66, 83},
    {5, 7, 14, 37, 71, 74, 85, 91, 95, 97},
    {13, 17, 22, 27, 28, 30, 40, 79, 83, 100},
    {13, 26, 28, 30, 40, 50, 61, 79, 83, 100},
    {13, 22, 26, 27, 40, 46, 49, 50, 93, 100},
    {9, 31, 34, 35, 36, 43, 48, 66, 73, 99},
    {8, 17, 20, 26, 27, 40, 61, 79, 83, 100},
    {4, 5, 14, 29, 38, 68, 71, 74, 91, 99},
    {16, 39, 51, 55, 60, 62, 69, 81, 89, 90},
    {4, 6, 18, 41, 44, 45, 56, 68, 84, 88},
    {23, 35, 43, 48, 56, 59, 70, 73, 88, 99},
    {23, 29, 34, 37, 43, 48, 56, 59, 70, 73, 99},
    {3, 9, 19, 21, 24, 42, 64, 65, 66, 94},
    {5, 7, 14, 25, 71, 74, 85, 91, 95, 97},
    {5, 14, 24, 25, 31, 37, 61, 64, 74, 91},
    {10, 12, 15, 16, 32, 58, 67, 87, 90, 98},
    {13, 17, 22, 26, 27, 28, 30, 79, 83, 100},
    {6, 18, 20, 33, 44, 45, 56, 72, 84, 88, 96},
    {3, 19, 20, 21, 24, 36, 64, 65, 66, 94},
    {23, 34, 35, 48, 56, 59, 70, 73, 88, 99},
    {6, 18, 33, 41, 43, 56, 70, 84, 88, 96},
    {4, 6, 16, 18, 33, 68, 71, 74, 84, 88, 99},
    {13, 22, 28, 49, 52, 53, 54, 57, 92, 93},
    {51, 52, 57, 62, 63, 69, 75, 78, 81, 82},
    {23, 34, 35, 43, 56, 70, 73, 84, 88, 99},
    {13, 22, 28, 46, 52, 53, 54, 57, 92, 93},
    {6, 13, 14, 25, 27, 28, 61, 85, 92, 95, 97},
    {11, 32, 47, 55, 60, 62, 63, 69, 75, 77, 89},
    {46, 47, 49, 54, 57, 69, 75, 78, 82, 92},
    {13, 22, 28, 46, 49, 52, 54, 57, 78, 93},
    {46, 47, 49, 52, 53, 57, 75, 78, 82, 93},
    {2, 32, 51, 60, 62, 63, 69, 77, 89, 90},
    {18, 23, 33, 34, 43, 44, 48, 70, 84, 88},
    {46, 47, 49, 52, 54, 75, 78, 82, 92, 93},
    {6, 15, 16, 39, 67, 72, 87, 90, 96, 98},
    {23, 34, 35, 43, 44, 48, 56, 70, 73, 88},
    {32, 47, 51, 55, 62, 63, 69, 75, 77, 89},
    {5, 14, 21, 24, 27, 30, 38, 50, 64, 83},
    {32, 47, 51, 55, 60, 63, 69, 81, 89, 90},
    {32, 47, 51, 55, 60, 62, 69, 75, 78, 81},
    {3, 19, 20, 21, 24, 42, 61, 65, 66, 83},
    {1, 3, 19, 21, 24, 36, 42, 64, 66, 94},
    {3, 9, 19, 21, 24, 36, 42, 64, 65, 94},
    {6, 7, 10, 12, 16, 39, 45, 71, 72, 87},
    {4, 6, 18, 33, 45, 71, 74, 84, 88, 99},
    {32, 47, 51, 60, 62, 63, 75, 78, 81, 82},
    {23, 33, 34, 35, 43, 44, 48, 56, 59, 73},
    {4, 7, 12, 14, 31, 37, 45, 68, 74, 91},
    {6, 10, 12, 18, 33, 41, 58, 67, 87, 96},
    {23, 29, 34, 35, 43, 48, 56, 59, 70, 99},
    {4, 12, 14, 31, 37, 38, 45, 68, 71, 91},
    {47, 51, 52, 54, 57, 60, 63, 69, 78, 82},
    {2, 11, 15, 16, 39, 77, 79, 86, 89, 90, 98},
    {2, 11, 51, 55, 60, 62, 76, 86, 89, 98},
    {47, 52, 54, 57, 63, 69, 75, 81, 82, 92},
    {8, 13, 17, 22, 26, 27, 28, 30, 40, 100},
    {1, 3, 8, 19, 20, 21, 36, 42, 65, 94},
    {7, 32, 47, 55, 62, 63, 69, 82, 85, 92, 97},
    {47, 52, 57, 69, 78, 81, 85, 92, 95, 97},
    {20, 21, 24, 26, 27, 30, 40, 61, 64, 100},
    {4, 6, 18, 33, 45, 48, 56, 68, 88, 99},
    {7, 14, 25, 37, 50, 82, 91, 92, 95, 97},
    {2, 11, 15, 55, 60, 76, 77, 89, 90, 98},
    {6, 10, 15, 16, 39, 58, 67, 72, 90, 96},
    {4, 6, 18, 33, 45, 48, 56, 68, 84, 99},
    {2, 11, 55, 60, 62, 76, 77, 86, 90, 98},
    {15, 16, 32, 39, 62, 76, 77, 87, 89, 98},
    {7, 12, 14, 25, 37, 71, 74, 85, 95, 97},
    {25, 50, 52, 57, 78, 81, 82, 85, 95, 97},
    {13, 22, 26, 28, 46, 49, 52, 53, 54, 57},
    {3, 9, 19, 21, 24, 36, 42, 64, 65, 66},
    {7, 14, 25, 37, 71, 74, 85, 91, 92, 97},
    {6, 18, 33, 41, 44, 45, 58, 67, 72, 87},
    {7, 14, 25, 37, 50, 82, 85, 91, 92, 95},
    {2, 11, 15, 16, 39, 76, 77, 86, 89, 90},
    {4, 29, 31, 34, 35, 45, 48, 68, 84, 88},
    {13, 17, 22, 26, 27, 28, 30, 40, 79, 83}
];
