n = 30;
allowed = [
    {8, 13, 17, 21},
    {12, 16, 17, 25},
    {10, 16, 19, 21},
    {5, 11, 15, 28, 29},
    {4, 8, 15, 28},
    {1, 8, 13, 18},
    {9, 14, 24, 27},
    {1, 6, 13, 18},
    {7, 22, 24, 27},
    {3, 16, 19, 21},
    {2, 12, 25, 26},
    {1, 16, 19, 25, 26},
    {1, 6, 8, 18},
    {7, 20, 24, 27},
    {4, 20, 23, 28},
    {3, 10, 19, 25},
    {1, 2, 21, 25, 29},
    {5, 6, 8, 13},
    {3, 6, 10, 16, 25},
    {15, 23, 27, 28},
    {1, 3, 10, 16},
    {9, 19, 24, 30},
    {4, 15, 20, 28},
    {7, 9, 14, 27},
    {10, 12, 16, 19},
    {2, 11, 12, 25},
    {7, 14, 20, 24},
    {4, 5, 15, 23},
    {4, 15, 23, 28},
    {10, 16, 19, 22}
];
