n = 30;
allowed = [
    {3, 4, 12, 27, 28},
    {1, 4, 6, 7, 27},
    {15, 16, 22, 24},
    {1, 2, 27, 28},
    {21, 23, 25, 29},
    {2, 11, 16, 26},
    {9, 13, 14, 17, 18},
    {1, 10, 12, 28},
    {7, 14, 17, 29},
    {8, 12, 19, 28},
    {2, 3, 16, 25, 30},
    {8, 10, 27, 30},
    {15, 18, 22, 24},
    {7, 9, 17, 20},
    {3, 16, 22, 24},
    {3, 15, 22, 24, 26},
    {9, 14, 20, 29},
    {13, 14, 15, 22, 24},
    {8, 10, 12, 21},
    {9, 14, 17, 29},
    {5, 19, 23, 25, 30},
    {3, 13, 15, 24},
    {12, 21, 25, 30},
    {3, 13, 15, 22},
    {11, 21, 23, 30},
    {6, 15, 16, 18},
    {1, 4, 12, 28},
    {1, 8, 12, 27},
    {5, 9, 17, 20},
    {11, 12, 23, 25}
];
