n = 50;
allowed = [
    {10, 14, 26, 41, 46},
    {4, 27, 34, 49},
    {11, 13, 35, 42},
    {2, 8, 14, 27, 45},
    {1, 2, 26, 27, 41},
    {12, 17, 29, 50},
    {4, 16, 25, 28, 33},
    {11, 36, 42, 44},
    {31, 34, 39, 47},
    {1, 24, 36, 41},
    {8, 24, 35, 48},
    {6, 29, 32, 38},
    {3, 7, 8, 35, 42},
    {2, 4, 27, 45},
    {21, 33, 39, 40},
    {25, 30, 36, 44},
    {6, 20, 23, 29, 50},
    {32, 37, 43, 47},
    {22, 34, 45, 49},
    {5, 11, 23, 35, 50},
    {9, 15, 17, 33, 39},
    {19, 34, 45, 49},
    {17, 20, 35, 50},
    {10, 11, 30, 36, 48},
    {4, 7, 16, 28},
    {1, 5, 41, 46},
    {2, 4, 14, 45},
    {4, 14, 25, 27, 42},
    {6, 12, 32, 38},
    {8, 16, 36, 44},
    {9, 34, 39, 49},
    {12, 18, 37, 43},
    {15, 21, 22, 39},
    {2, 19, 31, 49},
    {3, 11, 20, 23},
    {8, 10, 24, 44},
    {18, 39, 43, 47},
    {12, 29, 32, 40},
    {9, 31, 37, 47},
    {18, 21, 32, 43},
    {1, 5, 10, 26},
    {3, 8, 11, 44},
    {18, 32, 37, 40},
    {8, 30, 36, 42},
    {2, 4, 14, 27},
    {1, 26, 41, 47},
    {9, 37, 39, 46},
    {1, 10, 24, 46},
    {2, 19, 31, 34},
    {6, 17, 20, 23}
];
