n = 100;
allowed = [
    {10, 19, 35, 42, 57},
    {23, 83, 85, 95},
    {73, 74, 88, 94},
    {20, 30, 39, 97},
    {6, 40, 72, 97},
    {5, 70, 72, 97},
    {28, 40, 45, 82},
    {54, 58, 71, 90},
    {30, 36, 39, 92},
    {18, 49, 52, 99},
    {33, 37, 66, 86},
    {14, 32, 81, 98},
    {29, 50, 60, 75},
    {12, 15, 32, 98},
    {14, 51, 83, 87},
    {17, 19, 26, 56, 78},
    {19, 26, 34, 46, 56},
    {10, 49, 52, 58},
    {1, 35, 42, 57},
    {4, 39, 41, 69},
    {22, 43, 51, 78},
    {21, 43, 53, 78},
    {2, 59, 64, 95},
    {61, 84, 93, 99},
    {23, 59, 64, 75, 83},
    {16, 17, 19, 56},
    {63, 67, 81, 91},
    {7, 38, 45, 84},
    {13, 50, 62, 75, 80},
    {4, 9, 39, 92},
    {54, 58, 65, 89},
    {12, 14, 68, 98},
    {11, 71, 80, 90},
    {7, 82, 96, 100},
    {1, 19, 44, 57},
    {9, 34, 92, 100},
    {11, 57, 76, 85},
    {24, 26, 28, 45, 84},
    {4, 9, 30, 92},
    {5, 7, 82, 100},
    {20, 21, 69, 78},
    {1, 46, 48, 77},
    {21, 22, 53, 78},
    {57, 68, 79, 85},
    {7, 28, 38, 84},
    {17, 42, 48, 56},
    {12, 32, 62, 93, 98},
    {42, 46, 77, 94},
    {10, 18, 52, 89},
    {13, 29, 60, 75},
    {15, 21, 53, 87},
    {10, 18, 49, 99},
    {21, 43, 51, 91},
    {8, 58, 71, 90},
    {73, 80, 86, 88},
    {17, 42, 46, 48},
    {35, 44, 76, 79},
    {8, 18, 49, 54},
    {2, 23, 64, 95},
    {13, 29, 50, 55},
    {24, 49, 89, 93},
    {12, 32, 47, 98},
    {12, 27, 81, 91},
    {23, 25, 59, 70},
    {6, 31, 70, 72},
    {11, 39, 77, 86, 94},
    {27, 53, 63, 91},
    {32, 44, 79, 83},
    {4, 20, 39, 41, 44},
    {6, 65, 72, 97},
    {8, 33, 54, 90},
    {6, 65, 70, 97},
    {3, 55, 74, 88},
    {3, 73, 88, 94},
    {10, 13, 29, 80},
    {37, 44, 57, 85},
    {42, 48, 66, 94},
    {21, 22, 41, 43},
    {25, 35, 44, 57, 68},
    {29, 33, 75, 86},
    {12, 14, 27, 63},
    {5, 7, 40, 100},
    {2, 25, 64, 68},
    {24, 28, 38, 61},
    {2, 37, 44, 95},
    {11, 33, 66, 80},
    {14, 15, 51, 53},
    {3, 55, 73, 74},
    {31, 49, 52, 61},
    {8, 15, 18, 54, 71},
    {22, 27, 43, 53, 77},
    {9, 30, 36, 39, 95},
    {16, 24, 52, 61, 99},
    {3, 48, 74, 77},
    {2, 23, 59, 85},
    {7, 20, 34, 82, 100},
    {5, 6, 70, 72},
    {12, 14, 31, 32, 81},
    {10, 24, 52, 93},
    {30, 34, 40, 82}
];
