n = 20;
allowed = [
    {4, 8, 9, 11, 13, 15, 17},
    {3, 6, 7, 10, 12, 19, 20},
    {2, 6, 8, 13, 14, 15, 17, 20},
    {3, 6, 8, 9, 12, 15, 19},
    {11, 13, 14, 16, 17, 18, 20},
    {2, 3, 4, 12, 15, 19, 20},
    {2, 3, 6, 10, 12, 18, 20},
    {1, 3, 4, 9, 13, 15, 17},
    {1, 4, 8, 11, 13, 15, 17},
    {2, 3, 6, 7, 12, 19, 20},
    {1, 9, 13, 14, 15, 16, 17},
    {2, 3, 6, 7, 10, 19, 20},
    {3, 8, 11, 14, 15, 16, 17},
    {5, 10, 11, 13, 15, 16, 17, 18},
    {3, 4, 8, 13, 16, 17, 20},
    {3, 5, 13, 14, 15, 17, 18},
    {3, 8, 11, 13, 14, 15, 16},
    {5, 7, 13, 14, 16, 17, 20},
    {2, 3, 4, 6, 12, 15, 20},
    {2, 3, 6, 7, 10, 12, 15}
];
