n = 20;
allowed = [
    {2, 4, 5, 9, 10, 11, 18},
    {1, 4, 5, 9, 10, 14, 19},
    {1, 8, 10, 11, 13, 17, 20},
    {1, 2, 5, 9, 10, 14, 19},
    {1, 2, 4, 9, 10, 14, 19},
    {1, 3, 11, 12, 17, 18, 20},
    {2, 4, 5, 10, 14, 16, 19},
    {1, 3, 10, 11, 13, 16, 20},
    {1, 2, 4, 5, 14, 18, 19},
    {1, 2, 4, 5, 8, 11, 16},
    {1, 3, 5, 8, 10, 18, 20},
    {1, 6, 9, 11, 17, 18, 20},
    {3, 8, 10, 11, 15, 16, 17, 20},
    {1, 2, 4, 5, 7, 9, 19},
    {1, 2, 5, 6, 9, 14, 18, 19},
    {1, 2, 4, 7, 8, 10, 14, 18},
    {1, 3, 6, 11, 12, 13, 18, 20},
    {1, 5, 9, 10, 11, 12, 17},
    {1, 2, 4, 5, 9, 14, 15},
    {3, 6, 8, 10, 11, 17, 18}
];
