n = 30;
allowed = [
    {7, 12, 20, 23},
    {7, 13, 24, 25},
    {8, 9, 18, 28},
    {17, 19, 22, 27},
    {6, 16, 27, 29},
    {5, 14, 16, 29},
    {1, 20, 24, 30},
    {3, 9, 18, 28},
    {3, 8, 11, 18, 28},
    {1, 12, 20, 23},
    {1, 3, 8, 18, 28},
    {1, 10, 20, 23},
    {2, 7, 24, 25},
    {6, 15, 16, 21},
    {7, 14, 16, 23},
    {6, 14, 21, 29},
    {5, 19, 22, 27},
    {3, 8, 9, 28},
    {4, 17, 22, 27},
    {1, 7, 12, 22, 30},
    {14, 15, 16, 29},
    {4, 5, 19, 26, 27},
    {1, 7, 10, 12, 16},
    {2, 7, 25, 30},
    {2, 7, 13, 24, 28},
    {10, 16, 17, 21, 23},
    {5, 17, 19, 22},
    {3, 8, 11, 18},
    {5, 6, 14, 16, 30},
    {1, 7, 20, 24}
];
