n = 100;
allowed = [
    {12, 37, 64, 79, 91},
    {17, 34, 56, 82, 100},
    {41, 47, 49, 68, 70},
    {11, 19, 36, 73, 75},
    {39, 51, 64, 67, 91},
    {5, 29, 56, 67, 88},
    {14, 35, 48, 49, 65},
    {15, 38, 40, 50, 52},
    {5, 23, 64, 67, 81, 91},
    {18, 27, 32, 71, 72},
    {19, 29, 54, 73, 89},
    {1, 51, 64, 79, 91},
    {7, 44, 65, 76, 86},
    {7, 35, 48, 65, 98},
    {8, 16, 38, 52, 58},
    {8, 15, 38, 58, 80},
    {2, 43, 56, 82, 88, 100},
    {10, 27, 32, 71, 72},
    {11, 29, 54, 73, 75},
    {26, 35, 49, 63, 70},
    {38, 45, 58, 60, 80},
    {13, 43, 68, 77, 86},
    {9, 61, 64, 81, 91},
    {28, 32, 33, 69, 87},
    {18, 27, 50, 71, 84},
    {9, 20, 41, 63, 69, 70},
    {10, 18, 25, 71, 72},
    {10, 24, 32, 69, 87},
    {6, 11, 19, 54, 88},
    {31, 42, 62, 66, 89},
    {30, 62, 66, 89, 96},
    {10, 18, 24, 28, 87},
    {24, 28, 47, 62, 69},
    {78, 83, 94, 95, 99},
    {7, 14, 20, 48, 98},
    {4, 19, 42, 73, 75},
    {1, 12, 64, 79, 81},
    {8, 15, 16, 21, 80},
    {5, 51, 66, 77, 96},
    {8, 15, 50, 52, 93},
    {3, 47, 49, 63, 70},
    {30, 36, 54, 75, 89},
    {22, 26, 57, 68, 77, 86},
    {13, 14, 65, 76, 86},
    {16, 21, 58, 60, 80},
    {9, 61, 74, 90, 97},
    {3, 33, 41, 57, 69},
    {7, 14, 35, 65, 98},
    {3, 7, 41, 65, 70},
    {8, 40, 52, 59, 85},
    {5, 12, 39, 64, 91},
    {8, 40, 50, 85, 93},
    {8, 42, 50, 59, 85},
    {11, 19, 73, 75, 89},
    {60, 62, 78, 83, 95, 99},
    {6, 17, 29, 67, 88},
    {31, 43, 62, 68, 96},
    {16, 21, 45, 60, 80},
    {8, 50, 53, 72, 85},
    {21, 45, 55, 58, 80},
    {9, 46, 74, 90, 97},
    {30, 31, 33, 57, 92, 96},
    {20, 26, 41, 49, 70},
    {1, 5, 12, 48, 51, 91},
    {7, 13, 14, 44, 49},
    {31, 39, 54, 89, 96},
    {5, 6, 9, 56, 88},
    {3, 22, 43, 57, 77},
    {24, 28, 33, 41, 47},
    {3, 20, 37, 41, 49, 63},
    {10, 18, 25, 27, 72},
    {10, 18, 27, 59, 71},
    {4, 11, 19, 36, 75},
    {15, 46, 61, 82, 90, 97},
    {19, 36, 42, 54, 73, 82},
    {13, 22, 44, 65, 86},
    {22, 39, 43, 57, 68},
    {34, 83, 88, 94, 95, 99},
    {1, 12, 37, 64, 91},
    {16, 21, 45, 58, 60},
    {1, 9, 23, 37, 61, 68},
    {46, 56, 74, 90, 97},
    {34, 55, 78, 95, 99},
    {1, 25, 27, 40, 50, 93},
    {8, 50, 52, 53, 59},
    {13, 22, 44, 65, 76},
    {18, 24, 28, 32, 92},
    {6, 11, 29, 55, 56, 67},
    {30, 31, 54, 66, 96},
    {46, 61, 74, 82, 97},
    {5, 12, 23, 51, 64},
    {2, 10, 18, 27, 32, 87},
    {8, 15, 40, 50, 52, 87},
    {34, 78, 83, 95, 99},
    {34, 55, 78, 83, 99},
    {31, 57, 62, 66, 89},
    {46, 61, 74, 82, 90},
    {7, 14, 20, 35, 48, 99},
    {55, 78, 83, 94, 95},
    {2, 17, 34, 83, 95}
];
