n = 30;
allowed = [
    {2, 5, 17, 24},
    {1, 10, 17, 24},
    {8, 11, 22, 28},
    {1, 2, 12, 17, 24},
    {1, 13, 20, 23},
    {7, 14, 21, 30},
    {12, 14, 21, 30},
    {3, 11, 22, 28},
    {15, 16, 25, 26},
    {2, 9, 17, 25},
    {3, 8, 19, 28},
    {7, 14, 21, 23, 30},
    {3, 5, 8, 20},
    {6, 7, 21, 30},
    {9, 16, 25, 26},
    {9, 15, 25, 26},
    {2, 10, 18, 25},
    {9, 10, 17, 24, 25},
    {3, 8, 11, 20, 28},
    {1, 5, 13, 23},
    {6, 7, 14, 22, 30},
    {3, 8, 23, 28, 29},
    {2, 8, 22, 24},
    {1, 2, 4, 10, 17},
    {9, 15, 16, 26},
    {6, 9, 15, 16, 25},
    {15, 16, 18, 26, 29},
    {3, 8, 11, 22},
    {15, 16, 26, 27},
    {6, 7, 14, 21}
];
