n = 20;
allowed = [
    {2, 5, 9, 10, 11},
    {4, 5, 9, 14, 19},
    {8, 10, 11, 13, 20},
    {1, 2, 5, 14, 19},
    {1, 2, 4, 9, 10},
    {11, 12, 17, 18, 20},
    {2, 4, 10, 14, 16},
    {1, 3, 10, 11, 16},
    {1, 2, 5, 18, 19},
    {1, 2, 5, 8, 11},
    {1, 3, 8, 10, 20},
    {6, 9, 17, 18, 20},
    {3, 7, 8, 10, 11, 20},
    {2, 4, 5, 9, 19},
    {2, 5, 6, 9, 18, 19},
    {2, 4, 7, 8, 10, 17},
    {6, 11, 12, 18, 20},
    {1, 5, 9, 12, 15, 17},
    {2, 4, 5, 9, 14},
    {3, 6, 8, 11, 17}
];
