n = 100;
allowed = [
    {18, 39, 53, 59, 65, 75, 84, 93, 97, 98},
    {3, 20, 31, 37, 41, 49, 58, 72, 86, 89},
    {2, 20, 31, 41, 44, 49, 58, 72, 84, 86},
    {9, 25, 28, 43, 56, 60, 62, 71, 77, 81},
    {27, 51, 60, 63, 64, 69, 74, 78, 88, 92, 95},
    {11, 12, 13, 21, 29, 30, 57, 64, 92, 94},
    {21, 22, 26, 38, 46, 47, 52, 54, 66, 67, 70},
    {1, 18, 33, 54, 65, 80, 90, 96, 98, 100},
    {4, 15, 23, 34, 43, 48, 50, 60, 71, 99},
    {17, 19, 35, 45, 61, 68, 73, 79, 87, 91},
    {6, 12, 13, 21, 29, 30, 46, 57, 94, 96},
    {6, 11, 13, 21, 29, 30, 46, 57, 94, 96},
    {7, 11, 12, 29, 46, 52, 57, 66, 67, 94},
    {19, 25, 32, 35, 36, 40, 42, 55, 61, 91},
    {22, 23, 26, 38, 43, 47, 48, 50, 71, 99},
    {2, 5, 31, 37, 41, 63, 69, 72, 88, 89},
    {10, 19, 35, 45, 61, 68, 73, 79, 87, 91},
    {1, 8, 39, 59, 65, 75, 80, 97, 98, 100},
    {10, 17, 35, 42, 45, 55, 61, 79, 87, 91},
    {2, 3, 31, 41, 44, 49, 53, 58, 72, 86},
    {6, 11, 12, 27, 51, 57, 64, 92, 94, 96},
    {7, 15, 26, 38, 47, 50, 52, 66, 67, 70},
    {9, 15, 22, 34, 47, 48, 50, 67, 71, 99},
    {28, 33, 36, 62, 73, 76, 77, 82, 85, 100},
    {4, 14, 32, 36, 40, 55, 56, 61, 81, 91},
    {7, 15, 22, 38, 47, 52, 54, 62, 66, 70},
    {5, 21, 51, 64, 69, 80, 88, 92, 95, 96},
    {24, 26, 33, 38, 54, 62, 77, 82, 85, 90},
    {6, 7, 11, 12, 13, 21, 30, 46, 57, 94},
    {6, 11, 12, 13, 21, 29, 34, 57, 64, 92, 94},
    {2, 3, 20, 41, 58, 59, 72, 75, 84, 86},
    {14, 25, 35, 36, 40, 42, 55, 61, 81, 91},
    {8, 24, 28, 62, 76, 77, 82, 85, 90, 100},
    {9, 15, 22, 23, 43, 47, 48, 50, 71, 99},
    {10, 14, 17, 19, 42, 45, 55, 61, 79, 91},
    {10, 24, 32, 40, 61, 73, 76, 82, 87, 91},
    {2, 3, 16, 31, 41, 58, 63, 72, 86, 89},
    {7, 26, 28, 47, 52, 54, 62, 66, 70, 77},
    {1, 18, 53, 59, 65, 75, 83, 84, 97, 98},
    {14, 19, 25, 32, 36, 42, 55, 61, 82, 91},
    {2, 3, 20, 31, 37, 58, 72, 75, 84, 86},
    {10, 14, 19, 32, 35, 36, 40, 55, 61, 80, 91},
    {4, 9, 15, 48, 56, 60, 62, 71, 81, 99},
    {3, 20, 31, 49, 53, 58, 59, 84, 86, 97},
    {10, 17, 19, 35, 68, 73, 79, 83, 87, 91},
    {7, 13, 26, 38, 52, 54, 66, 67, 70, 96},
    {7, 15, 22, 23, 26, 38, 50, 52, 66, 67},
    {9, 15, 22, 23, 34, 43, 47, 50, 68, 71, 99},
    {2, 3, 20, 31, 41, 44, 53, 58, 72, 86},
    {9, 15, 22, 23, 34, 47, 48, 67, 71, 99},
    {5, 21, 27, 64, 69, 74, 78, 88, 92, 95},
    {7, 22, 26, 38, 46, 47, 54, 66, 67, 70},
    {1, 39, 44, 59, 65, 75, 83, 84, 97, 98},
    {7, 8, 26, 28, 38, 46, 62, 66, 70, 90},
    {10, 14, 19, 32, 35, 36, 40, 42, 61, 91},
    {4, 9, 25, 40, 43, 60, 62, 71, 77, 81},
    {6, 11, 12, 13, 21, 29, 30, 46, 94, 96},
    {2, 3, 20, 31, 41, 44, 49, 63, 72, 84, 86},
    {1, 39, 44, 53, 75, 84, 86, 93, 97, 98},
    {4, 9, 15, 28, 43, 56, 62, 71, 77, 81},
    {10, 14, 19, 32, 35, 36, 40, 42, 55, 91},
    {23, 24, 26, 28, 33, 38, 54, 60, 77, 82, 85},
    {2, 5, 16, 31, 37, 41, 69, 72, 88, 89},
    {5, 21, 27, 51, 69, 74, 88, 92, 95, 96},
    {1, 18, 39, 53, 73, 76, 83, 97, 98, 100},
    {7, 22, 26, 38, 46, 47, 52, 54, 67, 70},
    {7, 13, 15, 22, 26, 38, 47, 52, 66, 70},
    {10, 17, 19, 29, 35, 44, 45, 73, 79, 83, 87},
    {5, 27, 51, 63, 64, 74, 78, 88, 92, 95},
    {7, 26, 38, 46, 52, 54, 66, 67, 90, 96},
    {4, 9, 15, 23, 43, 48, 50, 56, 60, 99},
    {2, 3, 20, 31, 41, 49, 58, 75, 84, 86},
    {10, 39, 45, 65, 76, 82, 83, 85, 87, 100},
    {1, 31, 75, 78, 84, 86, 88, 93, 95, 98},
    {1, 31, 53, 59, 78, 84, 86, 93, 97, 98},
    {24, 33, 36, 65, 73, 82, 83, 85, 87, 100},
    {24, 26, 28, 33, 38, 54, 60, 62, 82, 85},
    {1, 31, 74, 75, 84, 86, 88, 93, 95, 98},
    {10, 17, 19, 35, 45, 61, 68, 73, 87, 91},
    {1, 8, 18, 74, 78, 90, 93, 95, 96, 98},
    {4, 25, 32, 36, 40, 43, 56, 60, 77, 82},
    {24, 33, 36, 40, 73, 76, 77, 85, 91, 100},
    {18, 39, 45, 53, 65, 73, 76, 87, 97, 100},
    {1, 31, 39, 53, 59, 75, 86, 93, 97, 98},
    {24, 28, 33, 36, 65, 73, 76, 77, 82, 100},
    {3, 31, 41, 58, 59, 72, 75, 84, 93, 97},
    {10, 17, 19, 36, 45, 68, 73, 76, 79, 83},
    {5, 31, 41, 51, 69, 74, 78, 86, 93, 95},
    {2, 3, 16, 31, 37, 41, 58, 63, 72, 86},
    {8, 18, 33, 54, 65, 70, 80, 85, 96, 100},
    {10, 14, 19, 32, 35, 36, 40, 55, 61, 79},
    {5, 21, 27, 51, 64, 69, 74, 78, 88, 95},
    {1, 31, 59, 74, 75, 78, 84, 86, 97, 98},
    {6, 7, 11, 12, 13, 21, 29, 46, 57, 96},
    {5, 27, 69, 74, 78, 80, 88, 92, 93, 96},
    {8, 27, 46, 54, 66, 70, 80, 90, 94, 95},
    {1, 18, 39, 53, 59, 75, 84, 86, 93, 98},
    {1, 18, 39, 53, 59, 75, 78, 84, 93, 97},
    {9, 15, 23, 34, 43, 47, 48, 50, 60, 71},
    {8, 18, 24, 33, 39, 65, 73, 76, 85, 90}
];
