n = 30;
allowed = [
    {6, 22, 27, 29},
    {12, 14, 18, 19},
    {7, 9, 16, 17, 28},
    {8, 9, 10, 20},
    {6, 22, 27, 30},
    {1, 5, 22, 27},
    {3, 11, 16, 17},
    {4, 9, 13, 19, 20},
    {8, 10, 13, 20},
    {4, 9, 13, 20},
    {1, 7, 21, 26, 29},
    {2, 14, 18, 19, 24},
    {8, 9, 10, 20},
    {2, 18, 19, 23},
    {5, 24, 25, 27, 29},
    {3, 7, 17, 28},
    {3, 7, 16, 28},
    {2, 12, 14, 19},
    {2, 12, 14, 18},
    {4, 8, 9, 13},
    {11, 22, 26, 29},
    {5, 6, 21, 30},
    {2, 14, 18, 19},
    {5, 6, 15, 27},
    {5, 15, 27, 30},
    {7, 11, 21, 29},
    {1, 5, 6, 25, 30},
    {3, 7, 16, 17},
    {1, 11, 21, 26},
    {5, 22, 25, 27}
];
