n = 100;
allowed = [
    {14, 78, 80, 92},
    {13, 24, 31, 93},
    {12, 50, 61, 63, 82},
    {16, 53, 60, 71, 86},
    {20, 76, 81, 85},
    {37, 60, 86, 89, 97},
    {26, 54, 99, 100},
    {19, 47, 50, 84},
    {17, 22, 59, 64},
    {18, 21, 34, 94},
    {13, 24, 48, 49},
    {56, 63, 70, 73},
    {2, 11, 24, 31},
    {1, 25, 87, 92},
    {33, 37, 53, 67},
    {10, 18, 21, 38},
    {9, 25, 43, 59, 64},
    {10, 16, 21, 27},
    {8, 47, 50, 84},
    {5, 76, 81, 85},
    {10, 18, 34, 94},
    {9, 32, 59, 64},
    {27, 41, 78, 95},
    {2, 11, 13, 31, 52},
    {14, 17, 59, 92},
    {7, 54, 67, 100},
    {18, 23, 32, 95},
    {30, 36, 65, 90},
    {7, 58, 70, 74, 75},
    {21, 28, 89, 90},
    {2, 13, 24, 93},
    {9, 22, 59, 64},
    {15, 53, 54, 99},
    {10, 18, 21, 94},
    {57, 65, 69, 74},
    {28, 42, 65, 90, 95},
    {6, 15, 60, 97},
    {10, 16, 18, 21},
    {48, 49, 83, 96},
    {1, 72, 78, 80},
    {23, 78, 80, 95},
    {46, 66, 68, 82},
    {44, 61, 71, 100},
    {43, 45, 61, 79},
    {52, 55, 76, 79},
    {63, 66, 73, 82},
    {8, 19, 32, 50, 84},
    {11, 39, 49, 62, 96},
    {11, 39, 83, 96},
    {8, 19, 47, 87},
    {15, 56, 67, 73},
    {44, 45, 76, 79, 88},
    {15, 33, 97, 99},
    {7, 33, 99, 100},
    {45, 69, 79, 91},
    {12, 63, 73, 88},
    {35, 65, 74, 75},
    {29, 70, 74, 75},
    {9, 17, 22, 64},
    {6, 37, 86, 97},
    {43, 44, 79, 98},
    {4, 43, 44, 61, 71},
    {12, 46, 56, 73},
    {9, 13, 22, 32, 59},
    {28, 35, 36, 57},
    {2, 42, 46, 82, 93},
    {15, 26, 33, 51},
    {42, 77, 81, 82, 84},
    {35, 79, 91, 98},
    {12, 29, 58, 75},
    {33, 54, 98, 99, 100},
    {1, 25, 40, 78, 80},
    {46, 51, 56, 88},
    {35, 57, 58, 75},
    {29, 58, 70, 74},
    {5, 20, 45, 55},
    {8, 19, 68, 84},
    {1, 23, 41, 80},
    {44, 45, 55, 91, 97},
    {1, 40, 72, 78},
    {5, 20, 72, 85, 89},
    {3, 42, 46, 66},
    {11, 13, 39, 49, 85},
    {8, 19, 68, 77},
    {5, 30, 81, 89},
    {6, 37, 60, 97},
    {1, 14, 50, 92},
    {37, 46, 48, 56, 73},
    {30, 81, 85, 90},
    {28, 30, 36, 89},
    {55, 69, 79, 98},
    {1, 14, 78, 87},
    {2, 31, 66, 88},
    {10, 18, 21, 34, 95},
    {23, 27, 41, 78},
    {11, 39, 48, 49},
    {6, 37, 60, 86},
    {31, 35, 69, 79, 91},
    {33, 54, 71, 100},
    {7, 26, 54, 99}
];
