n = 50;
allowed = [
    {2, 4, 8, 10, 12, 27, 28, 30, 35, 46},
    {1, 4, 6, 12, 27, 28, 31, 35, 36, 46},
    {11, 13, 15, 16, 18, 22, 24, 37, 38, 44},
    {1, 2, 8, 12, 27, 28, 30, 35, 36, 46},
    {21, 23, 25, 29, 32, 34, 39, 40, 42, 49},
    {2, 3, 11, 15, 16, 24, 26, 31, 35, 36},
    {9, 13, 14, 17, 38, 41, 44, 47, 48, 50},
    {1, 10, 12, 19, 21, 27, 28, 34, 42, 46},
    {7, 17, 29, 38, 41, 44, 47, 48, 49, 50},
    {8, 12, 19, 21, 28, 32, 34, 40, 42, 46},
    {3, 15, 16, 23, 24, 25, 30, 36, 44, 46},
    {1, 8, 10, 23, 27, 28, 30, 34, 42, 46},
    {3, 7, 15, 16, 18, 22, 24, 37, 38, 44},
    {7, 9, 17, 20, 41, 43, 45, 47, 48, 50},
    {3, 11, 13, 16, 18, 22, 24, 26, 37, 44},
    {3, 11, 13, 15, 18, 22, 24, 36, 37, 44},
    {14, 20, 29, 39, 41, 43, 45, 47, 48, 50},
    {3, 13, 15, 16, 22, 24, 26, 37, 38, 44},
    {5, 8, 10, 12, 21, 32, 33, 34, 40, 42},
    {14, 17, 29, 39, 41, 43, 45, 48, 49, 50},
    {5, 12, 19, 23, 25, 30, 34, 40, 42, 46},
    {3, 13, 15, 16, 18, 24, 26, 37, 38, 44},
    {5, 6, 11, 12, 21, 25, 30, 34, 42, 46, 49},
    {3, 11, 13, 15, 16, 18, 22, 32, 37, 38, 44},
    {5, 11, 12, 21, 23, 30, 34, 42, 46, 49},
    {3, 6, 13, 15, 16, 18, 22, 24, 31, 37},
    {1, 2, 4, 8, 12, 28, 30, 35, 36, 46},
    {1, 2, 4, 8, 10, 12, 19, 27, 30, 46},
    {5, 9, 17, 20, 39, 41, 47, 48, 49, 50},
    {11, 12, 21, 23, 25, 27, 34, 36, 42, 46},
    {2, 3, 6, 11, 15, 16, 24, 26, 35, 36},
    {5, 8, 10, 12, 19, 21, 33, 34, 40, 42},
    {5, 8, 10, 12, 19, 20, 21, 32, 34, 40, 42},
    {5, 12, 19, 21, 23, 25, 30, 40, 42, 46},
    {1, 2, 4, 6, 11, 27, 30, 31, 36, 46},
    {2, 3, 6, 11, 16, 23, 30, 31, 33, 35, 46},
    {3, 13, 15, 16, 18, 22, 24, 26, 38, 44},
    {3, 7, 9, 13, 22, 24, 37, 44, 47, 48},
    {5, 9, 17, 20, 29, 41, 43, 48, 49, 50},
    {5, 10, 19, 21, 23, 32, 33, 34, 42, 49},
    {9, 14, 17, 20, 29, 39, 43, 48, 49, 50},
    {5, 12, 19, 21, 23, 25, 30, 34, 40, 46},
    {7, 14, 17, 20, 39, 41, 45, 47, 48, 50},
    {3, 7, 9, 13, 15, 16, 22, 24, 38, 47},
    {7, 14, 17, 20, 31, 39, 41, 43, 47, 48, 50},
    {11, 12, 21, 23, 25, 27, 30, 34, 36, 42},
    {7, 9, 13, 14, 17, 38, 41, 44, 48, 50},
    {7, 9, 14, 17, 38, 41, 43, 44, 47, 50},
    {5, 9, 17, 20, 21, 29, 39, 41, 48, 50},
    {7, 9, 14, 17, 29, 39, 41, 47, 48, 49}
];
