n = 100;
allowed = [
    {11, 21, 22, 40, 41, 62, 71, 82, 84, 100},
    {16, 24, 29, 34, 35, 50, 55, 56, 60, 75},
    {13, 27, 49, 65, 66, 74, 77, 81, 89, 95},
    {5, 8, 21, 33, 42, 44, 47, 51, 78, 79},
    {4, 6, 19, 33, 42, 44, 47, 67, 78, 88},
    {5, 18, 19, 30, 33, 42, 67, 69, 80, 88},
    {12, 14, 34, 38, 43, 46, 57, 70, 87, 96},
    {4, 5, 21, 42, 44, 47, 72, 79, 84, 96},
    {18, 27, 49, 52, 54, 66, 74, 77, 81, 88},
    {7, 12, 16, 38, 39, 46, 57, 59, 90, 92},
    {1, 17, 21, 26, 43, 53, 71, 79, 84, 100},
    {10, 14, 38, 46, 57, 59, 83, 86, 87, 92},
    {3, 27, 30, 65, 66, 77, 80, 85, 89, 95},
    {7, 12, 20, 26, 38, 43, 57, 83, 86, 87},
    {23, 28, 37, 48, 50, 52, 56, 63, 73, 97},
    {2, 7, 10, 24, 34, 38, 46, 60, 70, 75},
    {11, 20, 26, 43, 53, 83, 86, 93, 99, 100},
    {6, 9, 13, 23, 27, 49, 66, 74, 77, 81, 88},
    {5, 6, 30, 33, 42, 47, 51, 67, 69, 78},
    {14, 17, 26, 43, 53, 59, 83, 86, 87, 93},
    {4, 8, 11, 41, 44, 47, 71, 79, 84, 96},
    {1, 11, 40, 41, 58, 62, 71, 82, 84, 99},
    {9, 15, 37, 49, 52, 54, 73, 74, 81, 97},
    {2, 7, 16, 34, 38, 46, 60, 70, 72, 75},
    {2, 16, 29, 31, 32, 45, 55, 64, 75, 76},
    {14, 17, 20, 43, 53, 59, 83, 86, 87, 93},
    {3, 9, 13, 18, 49, 65, 66, 74, 77, 81},
    {2, 29, 35, 45, 50, 55, 56, 63, 64, 98},
    {2, 25, 28, 45, 50, 55, 64, 68, 75, 76, 98},
    {6, 13, 19, 33, 36, 69, 80, 85, 89, 95},
    {25, 29, 32, 55, 64, 68, 75, 76, 91, 94},
    {10, 25, 31, 46, 68, 75, 76, 91, 92, 94},
    {5, 6, 19, 30, 42, 47, 51, 67, 69, 78},
    {2, 7, 16, 24, 38, 46, 57, 60, 70, 75},
    {2, 28, 50, 52, 54, 56, 60, 61, 70, 72},
    {13, 19, 30, 33, 67, 69, 80, 85, 89, 95},
    {9, 15, 23, 49, 52, 54, 73, 74, 77, 81},
    {7, 10, 12, 14, 16, 43, 46, 57, 70, 87},
    {10, 12, 57, 59, 86, 90, 91, 92, 93, 94},
    {1, 11, 22, 53, 62, 71, 82, 84, 99, 100},
    {1, 21, 22, 47, 58, 62, 71, 78, 79, 84},
    {4, 5, 8, 19, 33, 44, 47, 51, 67, 78},
    {7, 14, 20, 26, 38, 53, 83, 86, 87, 96},
    {4, 5, 6, 8, 21, 42, 47, 78, 79, 88},
    {2, 25, 28, 29, 50, 55, 63, 64, 75, 98},
    {7, 10, 12, 16, 24, 34, 38, 57, 60, 92},
    {4, 5, 8, 19, 21, 42, 44, 51, 78, 79},
    {15, 28, 29, 45, 50, 55, 63, 64, 97, 98},
    {3, 9, 18, 27, 37, 54, 66, 74, 77, 81},
    {2, 28, 29, 35, 45, 52, 55, 56, 64, 98},
    {4, 5, 6, 19, 33, 42, 47, 58, 67, 78},
    {9, 28, 35, 37, 49, 50, 54, 56, 61, 73},
    {11, 14, 17, 20, 26, 43, 83, 86, 99, 100},
    {9, 18, 35, 37, 49, 52, 56, 61, 73, 74},
    {2, 25, 28, 29, 45, 50, 64, 75, 76, 98},
    {2, 28, 29, 35, 50, 52, 54, 55, 61, 72},
    {7, 10, 12, 14, 38, 46, 59, 83, 87, 92},
    {1, 22, 41, 42, 47, 51, 62, 71, 78, 84},
    {12, 14, 20, 39, 57, 83, 86, 90, 92, 93},
    {2, 7, 16, 24, 34, 38, 46, 70, 72, 75},
    {8, 9, 35, 44, 50, 52, 54, 56, 70, 72},
    {1, 11, 22, 40, 41, 58, 71, 82, 84, 99},
    {15, 28, 29, 45, 48, 50, 55, 64, 97, 98},
    {2, 25, 28, 29, 45, 55, 63, 75, 76, 98},
    {3, 13, 27, 66, 74, 77, 80, 81, 89, 95},
    {13, 18, 27, 65, 74, 77, 80, 81, 89, 95},
    {5, 6, 19, 30, 33, 42, 47, 51, 69, 78},
    {10, 31, 32, 39, 44, 46, 76, 90, 91, 92, 94},
    {6, 13, 19, 30, 33, 36, 67, 80, 85, 95},
    {7, 14, 16, 24, 34, 38, 60, 72, 87, 96},
    {1, 11, 21, 22, 41, 58, 62, 79, 82, 84},
    {2, 8, 24, 34, 35, 56, 60, 61, 70, 96},
    {9, 15, 23, 37, 49, 52, 54, 74, 81, 97, 99},
    {3, 9, 13, 18, 27, 49, 66, 77, 81, 88},
    {2, 16, 24, 25, 29, 31, 34, 55, 60, 76},
    {16, 24, 25, 29, 31, 32, 46, 55, 64, 75},
    {3, 9, 13, 18, 27, 49, 65, 66, 74, 81},
    {4, 5, 19, 33, 41, 42, 44, 47, 51, 67},
    {4, 8, 11, 21, 41, 44, 47, 71, 84, 96},
    {6, 13, 30, 36, 65, 66, 69, 85, 89, 95},
    {3, 9, 13, 18, 27, 49, 65, 66, 74, 77},
    {1, 11, 22, 40, 41, 62, 71, 84, 99, 100},
    {12, 14, 17, 20, 26, 28, 43, 59, 86, 87, 93},
    {1, 8, 11, 21, 41, 47, 58, 62, 71, 79},
    {6, 13, 30, 33, 36, 65, 69, 80, 81, 89, 95},
    {12, 14, 17, 20, 26, 43, 59, 83, 87, 93},
    {7, 12, 14, 20, 26, 38, 43, 57, 83, 86},
    {5, 6, 9, 18, 27, 30, 66, 74, 77, 80},
    {3, 13, 27, 30, 65, 66, 77, 80, 85, 95},
    {10, 12, 39, 57, 59, 83, 86, 91, 92, 93},
    {10, 12, 31, 32, 39, 46, 68, 90, 92, 94},
    {10, 12, 14, 38, 39, 46, 48, 57, 59, 86, 90},
    {12, 14, 17, 20, 26, 59, 83, 86, 90, 92},
    {10, 31, 32, 39, 46, 68, 76, 90, 91, 92},
    {13, 27, 30, 65, 66, 69, 77, 80, 85, 89},
    {7, 8, 14, 21, 38, 43, 70, 72, 79, 87},
    {15, 23, 28, 37, 48, 50, 52, 63, 73, 98},
    {2, 25, 28, 29, 45, 48, 50, 55, 63, 64},
    {1, 11, 17, 20, 40, 53, 62, 71, 82, 100},
    {1, 11, 17, 20, 26, 39, 40, 53, 71, 82, 99}
];
