n = 20;
allowed = [
    {4, 7, 8, 11, 14, 17, 20},
    {7, 9, 10, 12, 14, 15, 16, 17},
    {5, 6, 9, 13, 15, 18, 19},
    {1, 5, 6, 8, 11, 18, 19},
    {4, 6, 8, 9, 13, 18, 19},
    {4, 5, 8, 9, 13, 18, 19},
    {10, 11, 12, 14, 16, 17, 20},
    {1, 4, 5, 6, 7, 11, 19},
    {3, 4, 5, 6, 8, 13, 18},
    {2, 7, 12, 14, 16, 17, 20},
    {1, 4, 7, 8, 14, 17, 20},
    {7, 10, 11, 14, 16, 17, 20},
    {2, 3, 4, 5, 6, 9, 18, 19},
    {3, 7, 10, 11, 12, 16, 17, 20},
    {2, 3, 6, 9, 13, 16, 18},
    {2, 7, 8, 10, 12, 14, 20},
    {1, 7, 10, 11, 12, 14, 20},
    {3, 4, 5, 6, 9, 13, 19},
    {4, 5, 6, 8, 9, 13, 18},
    {1, 7, 10, 11, 12, 14, 17}
];
