n = 100;
allowed = [
    {19, 35, 42, 57, 76},
    {23, 59, 83, 85, 95},
    {66, 73, 74, 88, 94},
    {5, 20, 30, 39, 97},
    {6, 40, 70, 72, 97},
    {5, 65, 70, 72, 97},
    {28, 40, 45, 82, 96},
    {18, 54, 58, 71, 90},
    {4, 30, 36, 39, 40, 92},
    {18, 49, 52, 93, 99},
    {33, 37, 66, 71, 86},
    {14, 32, 62, 81, 98},
    {29, 50, 60, 75, 80},
    {12, 15, 32, 81, 98},
    {14, 25, 51, 83, 87},
    {17, 19, 26, 35, 56},
    {16, 19, 26, 46, 56},
    {10, 49, 52, 58, 90},
    {1, 35, 42, 56, 57},
    {4, 30, 39, 41, 69},
    {22, 43, 51, 53, 78},
    {21, 43, 53, 78, 91},
    {2, 25, 59, 64, 95},
    {52, 61, 84, 93, 99},
    {2, 23, 59, 64, 67, 83},
    {1, 16, 17, 19, 56},
    {53, 63, 67, 81, 91},
    {7, 24, 38, 45, 84},
    {13, 50, 60, 75, 80},
    {4, 9, 39, 92, 100},
    {54, 58, 65, 70, 75, 89},
    {12, 14, 68, 83, 98},
    {8, 11, 71, 80, 90},
    {7, 40, 82, 96, 100},
    {1, 19, 44, 57, 79},
    {9, 30, 34, 92, 100},
    {11, 57, 76, 85, 95},
    {24, 28, 45, 84, 93},
    {4, 9, 20, 30, 92},
    {1, 5, 7, 82, 97, 100},
    {4, 20, 21, 51, 69, 78},
    {1, 46, 48, 56, 77},
    {21, 22, 53, 78, 91},
    {17, 57, 68, 76, 79, 85},
    {7, 24, 28, 38, 78, 84},
    {17, 42, 48, 56, 77, 96},
    {12, 14, 32, 41, 62, 98},
    {42, 46, 56, 77, 94},
    {10, 18, 52, 58, 89},
    {13, 29, 60, 75, 80},
    {15, 21, 43, 53, 87},
    {10, 18, 49, 93, 99},
    {21, 22, 43, 51, 91},
    {7, 8, 18, 58, 71, 90},
    {73, 74, 80, 86, 88},
    {17, 19, 42, 46, 48},
    {1, 35, 44, 76, 79},
    {8, 18, 49, 54, 90},
    {2, 23, 32, 54, 64, 95},
    {13, 29, 36, 50, 55, 75},
    {24, 49, 89, 93, 99},
    {12, 14, 32, 47, 98},
    {12, 27, 53, 81, 91},
    {23, 25, 59, 70, 72},
    {5, 6, 31, 70, 72},
    {11, 77, 86, 88, 94},
    {27, 53, 63, 81, 87, 91},
    {32, 44, 79, 83, 85},
    {4, 20, 30, 39, 41},
    {5, 6, 65, 72, 97},
    {8, 33, 54, 90, 95},
    {5, 6, 65, 70, 97},
    {3, 55, 74, 86, 88},
    {3, 66, 73, 88, 94},
    {10, 13, 29, 80, 99},
    {35, 37, 44, 57, 85},
    {42, 48, 66, 74, 94},
    {21, 22, 41, 43, 69},
    {35, 44, 57, 68, 85},
    {11, 29, 33, 75, 86},
    {12, 14, 27, 37, 63, 98},
    {5, 7, 34, 40, 100},
    {2, 23, 25, 64, 68},
    {24, 28, 38, 61, 93},
    {2, 37, 44, 68, 95},
    {11, 33, 55, 66, 80},
    {14, 15, 38, 51, 53, 81},
    {3, 55, 66, 73, 74},
    {31, 49, 52, 58, 61},
    {8, 18, 54, 58, 71},
    {22, 27, 43, 53, 63},
    {9, 30, 36, 39, 100},
    {10, 24, 39, 52, 61, 99},
    {3, 48, 66, 74, 77},
    {2, 23, 59, 71, 85},
    {7, 28, 34, 62, 82, 100},
    {4, 5, 6, 70, 72},
    {12, 14, 32, 68, 81},
    {10, 24, 52, 61, 93},
    {9, 30, 34, 40, 82}
];
