n = 100;
allowed = [
    {11, 15, 19, 25, 36, 46, 55, 66, 88, 94},
    {5, 9, 13, 39, 49, 57, 73, 93, 99, 100},
    {4, 16, 24, 26, 31, 48, 51, 52, 68, 84},
    {3, 16, 24, 26, 31, 47, 48, 51, 52, 68},
    {2, 9, 13, 22, 39, 41, 64, 73, 93, 99},
    {18, 23, 38, 42, 47, 52, 75, 77, 87, 96},
    {17, 21, 33, 50, 59, 63, 69, 78, 80, 86},
    {12, 50, 56, 58, 63, 71, 78, 80, 81, 86},
    {2, 5, 13, 22, 41, 64, 73, 74, 93, 99},
    {21, 23, 26, 28, 31, 34, 75, 87, 92, 96},
    {1, 15, 25, 36, 46, 55, 66, 76, 88, 94},
    {8, 50, 56, 58, 59, 67, 71, 78, 81, 86},
    {2, 5, 9, 22, 41, 64, 73, 83, 93, 99},
    {15, 25, 32, 36, 43, 46, 55, 62, 76, 82},
    {1, 11, 25, 27, 36, 46, 55, 66, 76, 94},
    {3, 4, 21, 24, 26, 31, 48, 52, 69, 84},
    {7, 33, 35, 40, 53, 63, 69, 84, 85, 91},
    {6, 23, 39, 45, 47, 52, 75, 85, 87, 96, 100},
    {1, 11, 12, 13, 36, 41, 64, 83, 88, 94, 97},
    {6, 14, 37, 38, 42, 54, 61, 70, 77, 89, 90},
    {7, 10, 16, 26, 31, 34, 50, 59, 84, 92},
    {5, 9, 13, 29, 30, 64, 72, 73, 74, 93},
    {6, 10, 26, 31, 47, 52, 75, 87, 92, 96},
    {3, 4, 16, 26, 29, 48, 51, 52, 66, 68, 84},
    {1, 11, 15, 36, 46, 55, 62, 76, 88, 94},
    {3, 16, 31, 47, 48, 52, 75, 84, 87, 92},
    {11, 15, 17, 32, 40, 46, 53, 55, 69, 91},
    {10, 21, 23, 34, 37, 60, 87, 92, 96, 98},
    {9, 13, 22, 30, 64, 72, 73, 74, 95, 99},
    {5, 9, 22, 29, 57, 72, 73, 74, 95, 99},
    {10, 21, 23, 26, 47, 52, 75, 87, 92, 96},
    {14, 15, 27, 43, 46, 53, 55, 62, 76, 82},
    {7, 17, 21, 50, 59, 63, 69, 80, 85, 86},
    {10, 21, 28, 50, 56, 59, 67, 71, 78, 92},
    {7, 17, 27, 33, 36, 53, 63, 69, 80, 85, 91},
    {1, 11, 15, 25, 46, 55, 62, 76, 88, 94},
    {10, 23, 28, 42, 60, 75, 87, 92, 96, 98},
    {6, 20, 42, 45, 54, 61, 70, 77, 89, 90},
    {2, 5, 9, 18, 49, 51, 68, 73, 93, 100},
    {15, 16, 17, 27, 48, 53, 66, 69, 84, 91},
    {5, 9, 13, 19, 22, 64, 72, 83, 93, 97},
    {6, 20, 23, 37, 38, 54, 61, 77, 89, 96},
    {14, 15, 25, 27, 32, 46, 55, 62, 76, 82, 95},
    {2, 18, 39, 45, 49, 57, 65, 79, 99, 100},
    {2, 6, 18, 38, 39, 44, 49, 65, 79, 100},
    {1, 11, 15, 25, 36, 55, 62, 76, 88, 94},
    {6, 18, 23, 26, 31, 52, 75, 87, 92, 96},
    {3, 4, 16, 24, 26, 31, 51, 52, 69, 84},
    {2, 39, 44, 45, 57, 65, 73, 79, 99, 100},
    {7, 12, 33, 34, 59, 63, 71, 78, 80, 86},
    {3, 4, 18, 24, 26, 39, 48, 52, 68, 100},
    {3, 4, 23, 26, 31, 47, 48, 75, 87, 96},
    {15, 17, 27, 32, 33, 35, 40, 69, 85, 91},
    {6, 20, 37, 38, 42, 61, 70, 77, 89, 90},
    {1, 11, 15, 25, 32, 36, 46, 62, 76, 94},
    {12, 34, 50, 59, 60, 67, 71, 78, 86, 98},
    {2, 5, 9, 22, 30, 49, 73, 74, 93, 98, 99},
    {8, 12, 43, 50, 59, 63, 71, 78, 80, 81, 86},
    {7, 12, 21, 33, 34, 50, 63, 78, 80, 86},
    {10, 28, 34, 37, 42, 56, 61, 67, 92, 98},
    {6, 20, 37, 38, 42, 54, 77, 89, 90, 98},
    {14, 15, 25, 32, 36, 43, 46, 55, 76, 82},
    {7, 17, 21, 33, 34, 50, 59, 78, 80, 86},
    {5, 9, 13, 22, 29, 41, 72, 73, 83, 93},
    {2, 6, 18, 38, 39, 44, 45, 49, 79, 100},
    {1, 3, 11, 15, 24, 40, 48, 68, 91, 94},
    {12, 28, 34, 50, 56, 59, 60, 71, 78, 98},
    {3, 4, 5, 24, 39, 48, 51, 66, 93, 100},
    {7, 16, 17, 33, 40, 48, 53, 84, 85, 91},
    {6, 20, 38, 42, 54, 61, 65, 77, 89, 90},
    {8, 12, 34, 50, 56, 58, 67, 78, 81, 86},
    {9, 13, 22, 29, 41, 64, 74, 83, 95, 97},
    {2, 5, 9, 13, 22, 39, 57, 74, 93, 99},
    {5, 9, 22, 29, 30, 57, 73, 93, 95, 99},
    {6, 10, 23, 26, 31, 47, 52, 87, 92, 96},
    {14, 15, 25, 32, 36, 43, 46, 55, 62, 82},
    {6, 20, 23, 37, 38, 42, 54, 61, 89, 96},
    {12, 34, 50, 56, 58, 59, 63, 67, 71, 86},
    {2, 18, 39, 44, 45, 49, 57, 65, 99, 100},
    {7, 8, 12, 33, 50, 58, 59, 63, 78, 86},
    {8, 12, 50, 56, 58, 67, 71, 78, 80, 86},
    {14, 15, 27, 32, 43, 46, 53, 55, 62, 76},
    {5, 9, 13, 19, 22, 29, 41, 64, 72, 97},
    {3, 16, 21, 26, 31, 33, 40, 48, 69, 91},
    {7, 17, 27, 33, 35, 53, 63, 69, 80, 91},
    {7, 8, 12, 50, 58, 59, 63, 78, 80, 81},
    {6, 10, 23, 26, 31, 47, 52, 75, 92, 96},
    {1, 11, 19, 25, 36, 46, 55, 62, 76, 94},
    {6, 20, 37, 38, 42, 54, 61, 70, 77, 90},
    {6, 20, 38, 42, 54, 61, 65, 70, 77, 89},
    {11, 15, 17, 27, 40, 53, 66, 69, 84, 85},
    {10, 21, 23, 26, 28, 31, 52, 75, 87, 96},
    {2, 5, 9, 13, 22, 39, 64, 73, 74, 99},
    {1, 11, 15, 19, 25, 36, 46, 55, 66, 88},
    {9, 22, 29, 30, 41, 64, 72, 74, 83, 99},
    {6, 10, 23, 28, 31, 47, 52, 75, 87, 92},
    {13, 19, 22, 29, 41, 64, 72, 83, 88, 94},
    {10, 28, 34, 37, 42, 45, 56, 60, 67, 92, 96},
    {2, 5, 9, 13, 22, 30, 57, 73, 74, 93},
    {2, 6, 18, 39, 45, 49, 51, 65, 68, 79}
];
