n = 100;
allowed = [
    {3, 16, 17, 51},
    {24, 27, 28, 52},
    {1, 16, 17, 92},
    {39, 49, 50, 83},
    {53, 67, 84, 85},
    {31, 33, 66, 70},
    {37, 65, 78, 98},
    {12, 30, 35, 73},
    {19, 25, 88, 94},
    {76, 85, 92, 96},
    {22, 34, 54, 77},
    {8, 9, 60, 71, 73},
    {33, 40, 46, 56},
    {39, 49, 66, 83, 99},
    {67, 74, 89, 97},
    {3, 17, 81, 92},
    {3, 11, 16, 81, 92},
    {21, 64, 68, 100},
    {9, 20, 25, 88, 94},
    {44, 55, 59, 85},
    {7, 13, 40, 46, 56},
    {48, 54, 56, 60},
    {24, 30, 47, 95},
    {2, 23, 27, 47},
    {41, 55, 88, 94},
    {6, 33, 61, 66, 70},
    {2, 24, 28, 52},
    {2, 24, 27, 52, 71},
    {49, 80, 93, 99},
    {23, 35, 47, 95},
    {6, 33, 39, 70},
    {25, 41, 55, 57, 75},
    {6, 13, 31, 66},
    {11, 54, 66, 77, 90},
    {8, 30, 47, 69},
    {1, 3, 64, 91},
    {38, 62, 65, 98},
    {29, 49, 65, 93},
    {14, 31, 43, 72},
    {13, 33, 46, 56},
    {25, 32, 55, 94},
    {58, 63, 74, 82},
    {4, 39, 40, 72},
    {20, 59, 64, 75, 90},
    {7, 58, 61, 78},
    {13, 33, 40, 56},
    {23, 24, 30, 87, 95},
    {22, 32, 54, 56, 60},
    {29, 83, 93, 99},
    {4, 38, 62, 65},
    {1, 3, 36, 43},
    {2, 27, 28, 90},
    {5, 15, 67, 73, 97},
    {13, 33, 46, 56},
    {25, 32, 41, 88},
    {13, 21, 46, 54},
    {79, 84, 86, 88},
    {35, 42, 45, 63, 82},
    {20, 44, 75, 90},
    {12, 22, 48, 71},
    {7, 45, 58, 78, 98},
    {37, 50, 65, 87},
    {37, 42, 62, 74},
    {18, 68, 91, 100},
    {37, 38, 62, 98},
    {6, 26, 33, 70},
    {5, 15, 53, 97},
    {64, 73, 91, 96, 100},
    {24, 30, 35, 47, 52},
    {6, 26, 31, 66},
    {12, 48, 60, 73},
    {6, 31, 39, 42, 43},
    {8, 12, 71, 100},
    {15, 42, 89, 97},
    {32, 44, 59, 90},
    {10, 85, 92, 96},
    {11, 22, 34, 54},
    {7, 45, 61, 98},
    {53, 57, 84, 86},
    {29, 49, 93, 94, 99},
    {16, 17, 89, 97},
    {42, 58, 63, 74},
    {29, 49, 93, 99},
    {5, 57, 76, 79, 86},
    {10, 14, 20, 76, 96},
    {57, 79, 84, 88},
    {50, 62, 77, 81, 89},
    {25, 41, 55, 82, 94},
    {15, 74, 81, 97},
    {2, 27, 44, 59},
    {36, 64, 68, 95},
    {3, 10, 16, 17},
    {29, 38, 49, 80},
    {9, 25, 41, 88},
    {23, 24, 47, 91},
    {10, 76, 85, 90},
    {15, 74, 81, 89},
    {7, 34, 37, 65, 93},
    {29, 49, 80, 93},
    {18, 60, 64, 73}
];
