n = 20;
allowed = [
    {2, 4, 5, 8, 9, 10, 11, 14, 18, 19},
    {1, 4, 5, 7, 9, 10, 14, 16, 18, 19},
    {1, 5, 8, 10, 11, 13, 16, 17, 18, 20},
    {1, 2, 5, 7, 8, 9, 10, 14, 16, 19},
    {1, 2, 4, 9, 10, 11, 14, 16, 18, 19},
    {1, 3, 5, 9, 10, 11, 12, 17, 18, 20},
    {1, 2, 4, 5, 8, 9, 10, 14, 16, 19},
    {1, 2, 3, 4, 5, 10, 11, 13, 16, 20},
    {1, 2, 4, 5, 10, 11, 14, 15, 18, 19},
    {1, 2, 3, 4, 5, 8, 9, 11, 16, 18},
    {1, 3, 5, 8, 10, 13, 16, 17, 18, 20},
    {1, 5, 6, 9, 10, 11, 15, 17, 18, 20},
    {1, 3, 6, 8, 10, 11, 15, 16, 17, 18, 20},
    {1, 2, 4, 5, 7, 9, 10, 16, 18, 19},
    {1, 2, 4, 5, 6, 9, 10, 12, 14, 18, 19},
    {1, 2, 3, 4, 5, 7, 8, 10, 11, 14},
    {1, 3, 5, 6, 8, 10, 11, 12, 18, 20},
    {1, 2, 5, 6, 9, 10, 11, 12, 17, 20},
    {1, 2, 4, 5, 9, 10, 14, 15, 16, 18},
    {1, 3, 6, 8, 10, 11, 12, 13, 17, 18}
];
