n = 20;
allowed = [
    {2, 3, 4, 7, 8, 10, 11, 13, 14, 16},
    {1, 3, 6, 7, 8, 10, 11, 13, 14, 16},
    {1, 2, 4, 7, 8, 10, 11, 13, 14, 16},
    {5, 7, 9, 10, 11, 14, 15, 16, 17, 18},
    {4, 7, 9, 11, 14, 15, 16, 17, 18, 20},
    {2, 7, 8, 10, 12, 13, 14, 16, 19, 20},
    {1, 2, 3, 4, 8, 10, 11, 13, 14, 16},
    {2, 6, 7, 10, 12, 13, 14, 16, 19, 20},
    {4, 5, 7, 10, 11, 14, 15, 16, 17, 18},
    {1, 2, 3, 4, 7, 8, 11, 13, 14, 16},
    {2, 3, 4, 5, 7, 9, 10, 13, 14, 16, 17},
    {6, 7, 8, 13, 14, 15, 16, 18, 19, 20},
    {1, 2, 6, 7, 8, 10, 12, 14, 16, 19},
    {2, 4, 6, 7, 8, 10, 11, 12, 13, 16},
    {4, 5, 9, 11, 12, 14, 16, 17, 18, 20},
    {2, 4, 6, 7, 8, 10, 11, 12, 13, 14},
    {4, 5, 7, 9, 11, 14, 15, 16, 18, 20},
    {4, 5, 9, 11, 12, 14, 15, 16, 17, 20},
    {2, 6, 7, 8, 10, 12, 13, 14, 16, 20},
    {5, 6, 8, 9, 12, 14, 15, 16, 17, 18}
];
