n = 100;
allowed = [
    {26, 41, 46, 57, 74},
    {4, 27, 80, 82},
    {51, 58, 65, 67, 97},
    {2, 27, 71, 82},
    {1, 26, 41, 80},
    {17, 29, 50, 68},
    {25, 28, 70, 100},
    {42, 44, 84, 88},
    {31, 34, 39, 47},
    {24, 36, 59, 78},
    {62, 63, 88, 95},
    {29, 38, 89, 99},
    {65, 69, 76, 97},
    {4, 27, 45, 71},
    {28, 33, 53, 74, 86},
    {25, 30, 70, 96},
    {6, 23, 50, 66},
    {32, 43, 81, 87},
    {15, 22, 34, 49, 51},
    {23, 35, 72, 83},
    {33, 54, 61, 73, 74},
    {19, 34, 49, 51},
    {20, 38, 66, 77, 83},
    {10, 48, 63, 78},
    {7, 16, 28, 100},
    {1, 5, 41, 57},
    {4, 14, 45, 71},
    {4, 25, 71, 100},
    {12, 68, 89, 99},
    {16, 44, 55, 64},
    {9, 34, 39, 49},
    {18, 43, 81, 89},
    {21, 61, 75, 86},
    {2, 19, 31, 49},
    {20, 60, 67, 83},
    {59, 64, 78, 96},
    {47, 56, 87, 91},
    {12, 29, 52, 99},
    {9, 31, 37, 47, 98},
    {52, 54, 73, 85},
    {1, 5, 26, 57},
    {8, 84, 88, 98},
    {18, 22, 32, 87, 91},
    {8, 30, 55, 64},
    {4, 14, 27, 71, 92},
    {7, 56, 57, 93, 94},
    {37, 56, 93, 94},
    {1, 24, 63, 90},
    {2, 19, 31, 34},
    {17, 23, 66, 72},
    {19, 22, 34, 49},
    {17, 38, 40, 54, 85},
    {15, 33, 74, 86},
    {40, 52, 73, 85},
    {8, 30, 44, 64},
    {46, 57, 93, 94},
    {46, 56, 93, 94},
    {60, 67, 69, 97},
    {10, 36, 78, 96},
    {58, 67, 72, 83},
    {21, 33, 73, 74},
    {11, 35, 63, 95},
    {4, 11, 24, 48, 78},
    {30, 36, 44, 96},
    {58, 67, 69, 85, 97},
    {17, 23, 50, 77},
    {35, 58, 60, 69},
    {12, 29, 38, 99},
    {58, 65, 67, 97},
    {16, 25, 30, 55},
    {4, 27, 45, 82},
    {20, 35, 60, 83},
    {21, 61, 87, 91},
    {15, 21, 53, 61},
    {21, 33, 61, 86},
    {3, 13, 65, 98},
    {23, 66, 79, 92},
    {10, 24, 36, 63},
    {77, 81, 89, 92},
    {2, 5, 26, 82},
    {18, 32, 79, 92},
    {2, 4, 71, 80},
    {20, 35, 60, 72},
    {8, 42, 44, 64, 88},
    {40, 52, 54, 73},
    {15, 33, 53, 75},
    {18, 37, 43, 91},
    {8, 11, 84, 95},
    {32, 79, 81, 92},
    {46, 57, 93, 94},
    {37, 43, 73, 87},
    {77, 79, 81, 89},
    {46, 56, 57, 94},
    {46, 57, 90, 93},
    {11, 35, 62, 88},
    {10, 36, 59, 64},
    {58, 65, 67, 69},
    {8, 42, 76, 84},
    {12, 13, 29, 38, 68},
    {7, 9, 25, 28, 71}
];
