n = 100;
allowed = [
    {53, 59, 75, 84, 93, 97, 98},
    {3, 20, 31, 41, 49, 58, 72},
    {2, 20, 31, 41, 49, 58, 72},
    {9, 25, 43, 56, 60, 71, 81},
    {51, 62, 69, 74, 78, 88, 92, 95},
    {11, 12, 21, 29, 30, 57, 94},
    {22, 26, 46, 52, 66, 67, 70},
    {18, 54, 65, 80, 90, 98, 100},
    {15, 23, 34, 43, 48, 71, 99},
    {17, 19, 35, 45, 68, 79, 87},
    {6, 12, 13, 21, 29, 57, 94},
    {6, 11, 13, 21, 29, 57, 94},
    {7, 11, 12, 29, 46, 67, 94},
    {25, 32, 40, 42, 55, 61, 91},
    {22, 23, 26, 43, 47, 48, 71},
    {2, 37, 41, 63, 72, 82, 88, 89},
    {10, 19, 35, 45, 68, 79, 87},
    {1, 8, 39, 65, 97, 98, 100},
    {10, 17, 35, 45, 61, 79, 91},
    {2, 3, 31, 44, 49, 58, 72},
    {6, 11, 12, 27, 57, 64, 68, 92},
    {7, 15, 26, 47, 52, 66, 67},
    {9, 15, 34, 47, 48, 50, 99},
    {28, 33, 76, 77, 82, 85, 100},
    {4, 14, 32, 36, 40, 56, 81},
    {7, 22, 38, 47, 52, 62, 66},
    {21, 51, 64, 80, 92, 95, 96},
    {24, 33, 38, 54, 62, 77, 85},
    {6, 11, 12, 13, 30, 57, 94},
    {6, 11, 12, 21, 29, 57, 94},
    {2, 3, 41, 58, 72, 84, 86},
    {14, 25, 40, 42, 55, 61, 91},
    {24, 28, 62, 76, 77, 85, 100},
    {9, 15, 23, 48, 50, 71, 99},
    {10, 17, 19, 55, 61, 79, 91},
    {40, 61, 73, 76, 82, 87, 91},
    {2, 3, 16, 41, 63, 72, 89},
    {26, 28, 52, 54, 62, 66, 77},
    {1, 18, 53, 59, 65, 83, 97},
    {14, 25, 32, 36, 61, 82, 91},
    {2, 3, 20, 31, 58, 72, 86},
    {14, 19, 32, 35, 55, 61, 91},
    {4, 9, 15, 56, 60, 71, 99},
    {3, 20, 49, 53, 58, 59, 84},
    {10, 17, 19, 68, 73, 79, 87},
    {7, 13, 52, 54, 66, 70, 96},
    {7, 15, 22, 26, 38, 52, 67},
    {9, 15, 23, 34, 50, 71, 99},
    {2, 3, 20, 31, 44, 58, 72},
    {9, 15, 23, 34, 47, 48, 99},
    {5, 27, 64, 69, 88, 92, 95},
    {7, 22, 26, 38, 47, 66, 67},
    {1, 39, 44, 59, 75, 84, 97},
    {26, 28, 38, 46, 66, 70, 90},
    {8, 14, 19, 32, 35, 42, 61, 91},
    {4, 25, 43, 60, 71, 77, 81},
    {6, 11, 12, 21, 29, 30, 94},
    {2, 3, 20, 31, 41, 49, 72},
    {1, 2, 53, 75, 84, 93, 97, 98},
    {4, 43, 56, 62, 71, 77, 81},
    {19, 32, 35, 36, 40, 55, 91},
    {24, 26, 28, 33, 38, 54, 77},
    {5, 16, 37, 41, 72, 88, 89},
    {5, 21, 27, 51, 69, 92, 95},
    {1, 18, 39, 73, 76, 83, 89, 100},
    {7, 26, 38, 46, 52, 54, 70},
    {7, 15, 22, 26, 47, 52, 66},
    {5, 10, 17, 19, 45, 79, 83, 87},
    {5, 51, 64, 74, 88, 92, 95},
    {7, 26, 38, 42, 46, 52, 54, 66},
    {4, 9, 15, 43, 48, 60, 99},
    {2, 3, 20, 31, 41, 50, 58, 86},
    {10, 45, 65, 76, 83, 85, 87},
    {75, 78, 86, 88, 93, 95, 98},
    {1, 53, 59, 84, 93, 97, 98},
    {24, 33, 65, 73, 82, 85, 100},
    {24, 28, 33, 38, 60, 62, 85},
    {74, 75, 86, 88, 93, 95, 98},
    {10, 17, 19, 35, 45, 68, 87},
    {8, 18, 90, 93, 95, 96, 98},
    {4, 25, 32, 40, 43, 56, 60},
    {24, 29, 33, 36, 40, 73, 76, 85},
    {18, 39, 53, 65, 73, 76, 87},
    {1, 53, 59, 75, 93, 97, 98},
    {24, 33, 65, 73, 76, 82, 100},
    {3, 31, 41, 59, 72, 75, 84},
    {10, 17, 45, 73, 76, 79, 83},
    {5, 41, 69, 74, 78, 93, 95},
    {2, 3, 16, 37, 41, 63, 72},
    {8, 18, 33, 54, 80, 96, 100},
    {10, 19, 35, 36, 40, 55, 61},
    {5, 21, 27, 51, 64, 69, 95},
    {1, 74, 75, 78, 84, 97, 98},
    {6, 11, 12, 13, 21, 29, 57},
    {5, 27, 74, 78, 80, 88, 93},
    {8, 27, 46, 70, 80, 90, 95},
    {1, 53, 59, 75, 84, 93, 98},
    {1, 18, 59, 75, 84, 93, 97},
    {9, 15, 23, 34, 48, 50, 63, 71},
    {8, 18, 33, 65, 76, 85, 90}
];
