n = 20;
allowed = [
    {2, 4, 8, 10, 12},
    {1, 4, 6, 11, 12},
    {11, 13, 15, 16, 18},
    {1, 2, 6, 8, 12},
    {9, 10, 12, 19, 20},
    {2, 3, 11, 15, 16},
    {9, 13, 14, 17, 20},
    {1, 4, 10, 12, 19, 20},
    {7, 13, 14, 17, 20},
    {1, 5, 8, 12, 19},
    {3, 4, 6, 13, 15, 16},
    {1, 4, 8, 10, 19},
    {3, 7, 15, 16, 18},
    {7, 9, 13, 17, 20},
    {3, 11, 13, 16, 18},
    {3, 11, 13, 15, 18},
    {5, 7, 9, 14, 20},
    {3, 7, 13, 15, 16},
    {1, 5, 8, 10, 12},
    {5, 7, 9, 14, 17}
];
