n = 100;
allowed = [
    {5, 9, 12, 23, 37, 51, 64, 79, 81, 91},
    {17, 34, 56, 73, 78, 82, 83, 88, 95, 100},
    {7, 41, 43, 47, 49, 57, 62, 63, 65, 68, 70},
    {11, 19, 21, 36, 42, 54, 60, 73, 75, 83},
    {6, 9, 12, 23, 29, 39, 51, 64, 67, 91},
    {5, 9, 23, 29, 56, 67, 74, 88, 91, 97},
    {13, 14, 20, 35, 44, 48, 49, 65, 70, 98},
    {15, 16, 38, 40, 50, 52, 53, 59, 85, 93},
    {5, 6, 23, 46, 61, 64, 67, 74, 91, 97},
    {18, 24, 27, 28, 32, 33, 71, 72, 87, 92, 98},
    {19, 29, 36, 54, 56, 66, 73, 75, 88, 89},
    {1, 5, 9, 23, 37, 39, 51, 64, 79, 91},
    {7, 14, 22, 43, 44, 49, 65, 68, 76, 86},
    {7, 13, 20, 35, 44, 48, 49, 65, 70, 98},
    {8, 16, 21, 38, 40, 50, 52, 58, 80, 93},
    {8, 15, 21, 38, 40, 45, 52, 58, 60, 80},
    {2, 6, 11, 19, 29, 56, 73, 82, 88, 100},
    {10, 24, 25, 27, 28, 32, 71, 72, 87, 92},
    {4, 11, 29, 36, 42, 54, 66, 73, 75, 89},
    {7, 14, 26, 35, 41, 48, 49, 63, 70, 98},
    {8, 15, 16, 36, 38, 45, 53, 58, 60, 80},
    {13, 39, 43, 51, 57, 65, 68, 76, 77, 86},
    {1, 5, 9, 12, 46, 61, 64, 67, 81, 91},
    {10, 18, 28, 32, 33, 47, 69, 72, 87, 92},
    {10, 18, 27, 40, 50, 71, 72, 84, 85, 92},
    {3, 20, 24, 35, 41, 47, 49, 63, 69, 70},
    {10, 18, 25, 32, 71, 72, 84, 85, 87, 92},
    {10, 18, 24, 32, 33, 69, 71, 72, 87, 92},
    {6, 11, 19, 54, 56, 66, 67, 73, 88, 89},
    {19, 31, 42, 54, 57, 62, 66, 75, 89, 96},
    {30, 33, 39, 42, 54, 57, 62, 66, 89, 96},
    {10, 18, 24, 27, 28, 69, 71, 72, 87, 92},
    {10, 24, 28, 32, 41, 47, 57, 62, 69, 72},
    {2, 4, 17, 26, 55, 78, 83, 94, 95, 99, 100},
    {7, 14, 20, 44, 48, 49, 63, 65, 70, 98},
    {4, 11, 19, 21, 30, 42, 53, 54, 73, 75},
    {1, 5, 9, 12, 23, 51, 64, 79, 81, 91},
    {8, 15, 16, 21, 40, 45, 50, 52, 58, 80},
    {5, 29, 31, 51, 57, 66, 77, 89, 91, 96},
    {8, 15, 16, 38, 50, 52, 59, 84, 85, 93},
    {3, 20, 26, 33, 47, 49, 63, 65, 69, 70},
    {19, 30, 31, 36, 53, 54, 66, 73, 75, 89},
    {3, 13, 22, 47, 49, 57, 68, 77, 86, 96},
    {7, 13, 14, 35, 48, 49, 65, 76, 86, 98},
    {8, 15, 16, 21, 38, 55, 58, 60, 80, 99},
    {6, 9, 23, 61, 67, 74, 81, 82, 90, 97},
    {3, 33, 41, 43, 49, 57, 62, 68, 69, 70},
    {7, 13, 14, 20, 35, 44, 49, 65, 70, 98},
    {3, 7, 13, 14, 20, 41, 63, 65, 68, 70},
    {8, 15, 25, 38, 40, 52, 53, 59, 85, 93},
    {1, 5, 9, 12, 22, 23, 39, 64, 77, 91},
    {8, 15, 16, 38, 40, 50, 53, 59, 85, 93},
    {8, 21, 38, 40, 42, 50, 52, 59, 72, 85},
    {11, 19, 29, 30, 36, 42, 66, 71, 73, 75, 89},
    {34, 45, 58, 60, 78, 80, 83, 94, 95, 99},
    {2, 6, 11, 17, 29, 67, 74, 82, 88, 97},
    {3, 30, 31, 43, 47, 62, 66, 68, 77, 96},
    {4, 8, 15, 16, 21, 38, 45, 55, 60, 80},
    {8, 27, 38, 40, 50, 52, 53, 71, 72, 85, 92},
    {4, 16, 21, 36, 38, 45, 55, 58, 80, 99},
    {6, 9, 23, 46, 67, 69, 74, 81, 82, 90, 97},
    {30, 31, 33, 42, 47, 57, 66, 68, 89, 96},
    {3, 7, 20, 26, 41, 47, 49, 65, 69, 70},
    {1, 5, 9, 12, 23, 37, 39, 51, 79, 91},
    {3, 7, 13, 14, 35, 44, 48, 49, 70, 86},
    {11, 19, 29, 30, 31, 39, 54, 57, 89, 96},
    {5, 6, 9, 23, 29, 56, 74, 88, 91, 97},
    {3, 13, 22, 43, 47, 49, 57, 65, 77, 86},
    {3, 24, 26, 28, 32, 33, 41, 47, 63, 70},
    {3, 7, 14, 20, 26, 35, 41, 49, 63, 65},
    {10, 18, 25, 27, 32, 50, 59, 72, 85, 92},
    {10, 18, 27, 28, 32, 33, 53, 59, 71, 85},
    {4, 11, 17, 19, 29, 36, 42, 54, 75, 89},
    {6, 9, 46, 56, 61, 67, 82, 88, 90, 97},
    {4, 11, 19, 30, 36, 42, 54, 66, 73, 89},
    {7, 13, 14, 21, 22, 43, 44, 65, 68, 77, 86},
    {13, 22, 39, 43, 51, 57, 66, 68, 86, 96},
    {4, 34, 45, 55, 60, 83, 94, 95, 99, 100},
    {1, 5, 9, 12, 23, 37, 51, 64, 81, 91},
    {4, 8, 15, 16, 21, 38, 45, 55, 58, 60},
    {1, 9, 12, 23, 37, 46, 61, 64, 79, 90},
    {6, 17, 46, 56, 61, 67, 74, 88, 90, 97},
    {2, 4, 34, 55, 60, 78, 94, 95, 99, 100},
    {8, 18, 25, 27, 40, 50, 52, 71, 85, 93},
    {8, 27, 38, 40, 50, 52, 53, 59, 71, 72},
    {7, 13, 22, 43, 44, 49, 65, 68, 76, 77},
    {10, 18, 24, 27, 28, 32, 69, 71, 72, 92},
    {5, 6, 9, 11, 17, 29, 56, 67, 74, 94, 97},
    {11, 19, 29, 30, 31, 39, 42, 54, 66, 96},
    {6, 9, 23, 46, 61, 67, 74, 81, 82, 97},
    {1, 5, 6, 9, 12, 23, 39, 51, 64, 67},
    {10, 18, 24, 25, 27, 28, 32, 71, 72, 87},
    {8, 15, 16, 25, 38, 40, 50, 52, 84, 85},
    {2, 34, 45, 55, 60, 78, 83, 95, 99, 100},
    {2, 4, 34, 55, 60, 78, 83, 94, 99, 100},
    {30, 31, 39, 43, 57, 62, 66, 68, 77, 89},
    {6, 9, 23, 46, 61, 67, 74, 82, 88, 90},
    {7, 13, 14, 20, 35, 44, 48, 49, 65, 70},
    {34, 45, 55, 58, 60, 78, 80, 83, 94, 95},
    {2, 17, 34, 56, 78, 82, 83, 94, 95, 99}
];
