n = 30;
allowed = [
    {2, 15, 21, 30},
    {1, 15, 21, 30},
    {1, 4, 14, 23, 30},
    {3, 14, 21, 30},
    {11, 13, 28, 29},
    {8, 13, 15, 17, 20},
    {12, 19, 24, 26},
    {10, 16, 18, 19},
    {3, 4, 11, 14, 22},
    {12, 19, 24, 25, 26},
    {5, 13, 22, 29},
    {2, 7, 26, 27},
    {15, 20, 21, 29},
    {3, 4, 9, 22},
    {1, 2, 21, 29},
    {3, 8, 10, 18},
    {6, 13, 20, 28},
    {8, 10, 16, 19},
    {10, 24, 25, 26},
    {6, 13, 17, 28},
    {1, 15, 29, 30},
    {4, 9, 11, 14},
    {6, 7, 9, 12, 17},
    {10, 19, 25, 26},
    {10, 19, 24, 26},
    {7, 19, 24, 25},
    {2, 5, 12, 19, 26},
    {5, 13, 17, 20},
    {1, 13, 15, 21},
    {1, 2, 7, 15, 21}
];
