n = 30;
allowed = [
    {2, 3, 7, 10, 11, 16, 23, 27, 28, 30},
    {1, 3, 7, 10, 14, 16, 23, 27, 28, 30},
    {1, 2, 7, 10, 11, 16, 23, 27, 28, 30},
    {5, 9, 11, 15, 16, 17, 21, 26, 28, 30},
    {4, 9, 11, 15, 16, 17, 18, 21, 25, 28},
    {8, 12, 13, 14, 19, 22, 24, 26, 27, 29},
    {2, 10, 11, 14, 16, 23, 26, 27, 28, 30},
    {6, 12, 13, 14, 17, 19, 22, 24, 26, 27, 29},
    {4, 5, 11, 15, 16, 17, 18, 21, 25, 28},
    {1, 2, 3, 7, 14, 16, 23, 27, 28, 30},
    {4, 7, 9, 10, 14, 16, 21, 26, 28, 30},
    {6, 8, 13, 14, 16, 19, 22, 26, 27, 29},
    {2, 6, 7, 8, 14, 16, 24, 26, 27, 29},
    {2, 6, 7, 10, 13, 16, 22, 26, 27, 30},
    {4, 5, 9, 17, 18, 20, 21, 22, 25, 26},
    {2, 7, 10, 11, 14, 21, 26, 27, 28, 30},
    {4, 5, 9, 11, 15, 16, 18, 20, 21, 25, 28},
    {4, 5, 9, 15, 17, 20, 21, 22, 25, 26},
    {6, 8, 12, 13, 14, 22, 24, 26, 27, 29},
    {5, 6, 12, 15, 18, 21, 22, 25, 26, 29},
    {4, 5, 9, 11, 15, 16, 17, 18, 25, 26},
    {6, 8, 12, 13, 14, 16, 25, 26, 27, 29},
    {1, 2, 3, 7, 10, 11, 16, 27, 28, 30},
    {6, 8, 12, 13, 14, 19, 22, 26, 27, 29},
    {4, 5, 9, 15, 17, 18, 20, 21, 22, 26},
    {2, 6, 7, 10, 12, 14, 16, 22, 27, 30},
    {2, 6, 7, 8, 10, 13, 14, 16, 26, 29},
    {1, 2, 3, 4, 7, 10, 11, 16, 23, 30},
    {6, 8, 12, 13, 14, 19, 22, 24, 26, 27},
    {1, 2, 7, 10, 11, 14, 16, 23, 26, 28}
];
