n = 50;
allowed = [
    {7, 12, 20, 23},
    {13, 24, 25, 39},
    {8, 9, 32, 33},
    {22, 36, 41, 50},
    {6, 29, 41, 45},
    {14, 16, 29, 44},
    {1, 20, 24, 39},
    {3, 9, 32, 33},
    {3, 8, 33, 46},
    {12, 23, 35, 48},
    {28, 32, 37, 40},
    {1, 10, 20, 23},
    {2, 24, 25, 47},
    {15, 16, 31, 49},
    {14, 35, 39, 48},
    {14, 21, 31, 49},
    {5, 19, 27, 41},
    {8, 28, 40, 46},
    {17, 22, 27, 41},
    {1, 7, 12, 30},
    {14, 16, 31, 49},
    {4, 17, 19, 36, 41},
    {10, 12, 35, 48},
    {2, 7, 25, 39},
    {2, 13, 24, 26, 39},
    {10, 21, 38, 49},
    {5, 17, 19, 25, 41},
    {8, 18, 32, 46},
    {5, 6, 16, 44},
    {1, 7, 20, 24, 36},
    {10, 14, 16, 21, 49},
    {3, 8, 28, 43},
    {2, 3, 8, 9, 42},
    {32, 42, 43, 44},
    {10, 15, 23, 48},
    {4, 22, 41, 50},
    {11, 19, 28, 32, 40},
    {10, 21, 26, 33, 49},
    {2, 7, 24, 25},
    {11, 18, 28, 37},
    {5, 22, 27, 45},
    {33, 34, 43, 47},
    {32, 34, 42, 47},
    {6, 29, 34, 45},
    {5, 37, 41, 44},
    {3, 8, 18, 28},
    {13, 25, 42, 43},
    {10, 15, 23, 35},
    {14, 16, 21, 31},
    {4, 22, 36, 41}
];
