n = 50;
allowed = [
    {2, 3, 15, 21, 29, 30, 32},
    {1, 15, 21, 27, 29, 30, 32},
    {1, 2, 4, 14, 30, 32, 46},
    {1, 3, 14, 21, 22, 30, 32},
    {11, 13, 28, 29, 36, 44, 48},
    {13, 17, 20, 35, 45, 47, 50},
    {12, 19, 24, 26, 31, 40, 41},
    {16, 18, 33, 34, 39, 43, 49},
    {3, 4, 14, 22, 37, 43, 46},
    {18, 19, 24, 25, 26, 33, 34},
    {5, 13, 21, 22, 29, 37, 48},
    {7, 26, 27, 31, 40, 41, 50},
    {6, 15, 20, 21, 29, 35, 44},
    {3, 4, 9, 22, 30, 32, 46},
    {1, 2, 11, 13, 21, 29, 30, 32},
    {8, 10, 34, 39, 43, 46, 49},
    {6, 20, 35, 36, 42, 45, 47},
    {8, 10, 16, 33, 34, 38, 39, 49},
    {7, 10, 24, 25, 26, 27, 31},
    {6, 13, 17, 35, 36, 42, 44},
    {1, 2, 13, 15, 29, 30, 32},
    {4, 9, 11, 14, 29, 32, 37},
    {7, 12, 38, 40, 41, 47, 50},
    {7, 10, 19, 25, 26, 27, 31},
    {7, 10, 19, 24, 26, 27, 31, 37},
    {7, 10, 19, 24, 25, 27, 31},
    {2, 7, 12, 19, 24, 26, 31},
    {5, 20, 35, 36, 42, 44, 48},
    {1, 2, 13, 15, 21, 30, 32},
    {1, 2, 3, 4, 15, 21, 32},
    {7, 12, 19, 24, 26, 27, 41},
    {1, 2, 4, 15, 21, 29, 30},
    {8, 10, 18, 19, 25, 34, 39},
    {8, 10, 16, 39, 43, 46, 49},
    {6, 17, 20, 36, 42, 44, 45},
    {5, 20, 28, 35, 42, 44, 48},
    {4, 5, 11, 14, 22, 29, 32},
    {7, 12, 23, 25, 26, 40, 41},
    {8, 10, 16, 34, 43, 46, 49},
    {7, 12, 23, 31, 38, 41, 50},
    {7, 12, 26, 27, 31, 40, 50},
    {6, 17, 20, 28, 35, 36, 44},
    {8, 9, 16, 34, 39, 46, 49},
    {5, 20, 28, 35, 36, 42, 48},
    {6, 17, 20, 35, 42, 47, 50},
    {3, 4, 14, 30, 32, 34, 43},
    {6, 8, 17, 20, 23, 35, 45, 50},
    {5, 13, 18, 20, 28, 35, 36, 44},
    {8, 10, 16, 34, 39, 43, 46},
    {6, 12, 17, 23, 41, 45, 47}
];
