n = 30;
allowed = [
    {7, 10, 12, 20, 23, 24, 30},
    {7, 13, 15, 20, 24, 25, 30},
    {8, 9, 11, 13, 18, 25, 28},
    {5, 6, 17, 19, 22, 27, 29},
    {6, 16, 17, 21, 22, 27, 29},
    {2, 5, 14, 15, 16, 21, 28, 29},
    {1, 2, 20, 23, 24, 25, 30},
    {3, 6, 9, 11, 13, 18, 28},
    {3, 8, 11, 13, 18, 25, 28},
    {1, 7, 12, 14, 15, 20, 23},
    {3, 6, 8, 9, 18, 28, 29},
    {1, 7, 10, 20, 23, 24, 30},
    {2, 7, 14, 15, 24, 25, 30},
    {6, 10, 15, 16, 21, 23, 29},
    {2, 7, 10, 14, 16, 23, 24},
    {5, 6, 10, 14, 15, 21, 29},
    {4, 5, 19, 21, 22, 27, 29},
    {3, 6, 8, 9, 11, 13, 28},
    {4, 5, 17, 21, 22, 26, 27, 29},
    {1, 7, 10, 12, 23, 24, 30},
    {6, 10, 14, 15, 16, 26, 29},
    {4, 5, 6, 17, 19, 27, 29},
    {1, 7, 10, 12, 14, 15, 20},
    {2, 7, 13, 15, 20, 25, 30},
    {2, 7, 13, 15, 20, 24, 30},
    {10, 12, 14, 16, 17, 21, 23},
    {4, 5, 17, 19, 21, 22, 29},
    {3, 6, 8, 9, 11, 18, 29},
    {5, 6, 14, 15, 16, 21, 27},
    {1, 2, 4, 7, 12, 20, 24, 25}
];
