n = 50;
allowed = [
    {8, 11, 17, 21, 22, 40, 41},
    {16, 24, 28, 29, 34, 35, 50},
    {9, 13, 18, 27, 30, 37, 49},
    {5, 8, 21, 33, 42, 44, 47},
    {4, 6, 19, 33, 42, 44, 47},
    {5, 13, 18, 19, 30, 33, 42},
    {12, 14, 16, 34, 38, 43, 46},
    {4, 5, 21, 41, 42, 44, 47},
    {3, 18, 23, 27, 35, 37, 49},
    {7, 12, 14, 16, 38, 39, 46},
    {1, 14, 17, 20, 21, 26, 43},
    {7, 10, 14, 38, 39, 43, 46},
    {3, 6, 18, 27, 30, 36, 49},
    {7, 10, 12, 20, 26, 38, 43},
    {23, 28, 35, 37, 45, 48, 50},
    {2, 7, 10, 24, 34, 38, 46},
    {11, 12, 14, 20, 26, 38, 43},
    {3, 5, 6, 9, 13, 27, 49},
    {4, 5, 6, 30, 33, 42, 47},
    {11, 12, 14, 17, 26, 38, 43},
    {1, 4, 8, 11, 41, 44, 47},
    {1, 11, 21, 40, 41, 42, 47},
    {3, 9, 15, 27, 28, 37, 49},
    {2, 7, 16, 29, 34, 38, 46, 48},
    {2, 16, 24, 29, 31, 32, 45},
    {7, 11, 14, 17, 20, 38, 43},
    {3, 6, 9, 13, 18, 30, 49},
    {2, 15, 29, 35, 45, 48, 50},
    {2, 16, 24, 25, 28, 45, 50},
    {5, 6, 13, 18, 19, 33, 36},
    {10, 16, 25, 29, 32, 45, 46, 50},
    {10, 16, 25, 29, 31, 39, 46},
    {4, 5, 6, 19, 30, 32, 42, 47},
    {2, 7, 10, 16, 24, 38, 46},
    {2, 9, 24, 28, 29, 34, 50},
    {5, 6, 13, 19, 27, 29, 30, 33},
    {3, 9, 15, 18, 23, 27, 30, 49},
    {7, 10, 12, 14, 16, 43, 46},
    {10, 12, 14, 20, 26, 38, 46},
    {1, 11, 17, 20, 22, 26, 38, 41},
    {1, 4, 11, 21, 22, 42, 47},
    {4, 5, 8, 19, 33, 44, 47},
    {7, 11, 14, 17, 20, 26, 38},
    {4, 5, 6, 8, 21, 42, 47},
    {2, 24, 25, 28, 29, 48, 50},
    {7, 10, 12, 16, 24, 34, 38},
    {4, 5, 8, 19, 21, 42, 44},
    {2, 15, 23, 28, 29, 45, 50},
    {3, 9, 13, 18, 23, 27, 37},
    {2, 24, 28, 29, 34, 35, 36, 45}
];
