n = 100;
allowed = [
    {55, 60, 98},
    {18, 19, 61},
    {37, 39, 46, 70},
    {20, 52, 58},
    {27, 73, 88},
    {60, 67, 81},
    {16, 82, 96, 99},
    {23, 43, 64, 97},
    {13, 31, 32, 64},
    {36, 49, 74},
    {21, 26, 72},
    {19, 57, 94},
    {9, 31, 64},
    {51, 78, 91},
    {50, 68, 76},
    {7, 39, 99},
    {28, 40, 93},
    {2, 14, 61},
    {2, 12, 18},
    {4, 8, 64},
    {11, 26, 72},
    {67, 83, 86, 92},
    {14, 51, 78},
    {40, 45, 70, 100},
    {53, 75, 80},
    {11, 72, 79},
    {5, 63, 88},
    {17, 37, 40},
    {11, 21, 32, 39},
    {69, 71, 73},
    {9, 13, 74},
    {21, 29, 55},
    {76, 84, 96, 99},
    {52, 85, 87},
    {49, 82, 90},
    {10, 20, 22, 87},
    {3, 28, 46},
    {29, 85, 87},
    {3, 16, 90},
    {17, 48, 62, 93},
    {42, 57, 66, 70},
    {41, 66, 70},
    {8, 64, 97},
    {20, 65, 91, 95},
    {24, 76, 100},
    {3, 28, 37},
    {69, 83, 92},
    {9, 23, 78, 86},
    {10, 35, 74},
    {15, 54, 68, 76},
    {14, 23, 78},
    {4, 34, 58},
    {71, 80, 88},
    {33, 75, 96, 99},
    {1, 81, 98},
    {58, 59, 97},
    {12, 61, 94},
    {4, 56, 59},
    {56, 58, 97},
    {1, 6, 98},
    {2, 18, 89, 92},
    {40, 93, 95},
    {5, 27, 88},
    {8, 13, 43},
    {44, 91, 95},
    {41, 42, 59},
    {6, 17, 55, 81},
    {15, 50, 76},
    {30, 47, 83},
    {42, 77, 100},
    {30, 53, 73},
    {11, 26, 74, 79},
    {5, 30, 71},
    {10, 31, 49},
    {25, 76, 80},
    {15, 68, 75},
    {60, 98, 100},
    {12, 23, 44, 91},
    {26, 72, 95},
    {25, 53, 75},
    {6, 55, 67},
    {7, 35, 99},
    {45, 47, 69, 92},
    {33, 93, 96},
    {38, 52, 87},
    {28, 40, 48},
    {38, 52, 85},
    {27, 53, 63},
    {30, 47, 49, 69},
    {16, 24, 35, 39},
    {44, 65, 78},
    {47, 69, 83},
    {40, 62, 84},
    {7, 12, 19, 57},
    {62, 65, 79},
    {33, 84, 99},
    {8, 43, 56},
    {1, 6, 60},
    {7, 16, 96},
    {45, 70, 77}
];
