n = 100;
allowed = [
    {2, 3, 10, 23, 30, 31, 39, 41, 65, 91},
    {7, 10, 23, 30, 37, 45, 58, 60, 65, 91},
    {1, 2, 10, 23, 28, 31, 39, 41, 65, 91},
    {9, 11, 21, 33, 44, 51, 62, 67, 72, 88},
    {9, 17, 33, 36, 51, 52, 62, 80, 85, 98},
    {8, 12, 22, 29, 48, 54, 66, 90, 92, 97},
    {2, 10, 30, 37, 45, 50, 58, 60, 74, 79},
    {6, 12, 13, 29, 48, 54, 61, 66, 82, 90},
    {5, 17, 33, 36, 51, 52, 62, 80, 88, 98},
    {2, 7, 23, 30, 37, 45, 58, 60, 65, 79},
    {4, 28, 30, 31, 44, 67, 72, 74, 79, 93},
    {6, 22, 29, 48, 54, 59, 66, 75, 92, 97},
    {8, 27, 32, 34, 48, 50, 55, 76, 82, 90},
    {16, 26, 35, 40, 43, 50, 58, 64, 77, 81},
    {18, 21, 25, 36, 49, 57, 68, 69, 85, 89},
    {14, 26, 43, 50, 58, 60, 64, 74, 81, 94},
    {5, 9, 33, 36, 51, 52, 62, 80, 85, 98},
    {15, 25, 56, 57, 68, 69, 83, 85, 89, 99},
    {6, 8, 24, 29, 46, 61, 66, 82, 90, 100},
    {38, 42, 56, 57, 63, 70, 78, 83, 84, 99},
    {4, 44, 49, 51, 62, 67, 72, 73, 85, 88},
    {6, 12, 29, 47, 48, 54, 59, 75, 92, 97},
    {1, 2, 3, 10, 30, 31, 39, 41, 65, 91},
    {8, 13, 19, 29, 46, 61, 66, 82, 90, 100},
    {15, 18, 47, 49, 57, 68, 69, 85, 89, 96},
    {14, 16, 35, 40, 43, 50, 64, 77, 94, 95},
    {13, 14, 32, 34, 35, 45, 50, 55, 64, 76},
    {10, 11, 30, 31, 37, 39, 65, 74, 79, 93},
    {6, 8, 12, 22, 48, 54, 66, 82, 90, 100},
    {7, 10, 28, 31, 37, 58, 60, 74, 79, 93},
    {10, 11, 28, 30, 37, 39, 60, 74, 79, 93},
    {8, 13, 27, 34, 48, 50, 55, 76, 82, 90},
    {4, 9, 36, 51, 52, 62, 72, 80, 88, 98},
    {8, 13, 27, 32, 50, 55, 64, 76, 82, 90},
    {14, 26, 40, 43, 48, 64, 77, 92, 95, 97},
    {5, 9, 17, 33, 51, 52, 62, 80, 85, 98},
    {2, 7, 10, 30, 45, 58, 60, 74, 79, 81},
    {20, 42, 53, 56, 63, 70, 78, 83, 84, 99},
    {1, 3, 10, 23, 28, 30, 31, 41, 65, 91},
    {26, 35, 43, 73, 77, 92, 94, 95, 96, 97},
    {1, 2, 3, 10, 23, 28, 31, 39, 65, 83, 91},
    {20, 38, 53, 63, 70, 71, 78, 84, 86, 99},
    {14, 16, 26, 35, 40, 73, 77, 81, 94, 95},
    {4, 11, 21, 49, 62, 67, 72, 73, 85, 88},
    {2, 7, 10, 37, 50, 58, 60, 64, 74, 79},
    {8, 13, 19, 24, 29, 61, 66, 82, 90, 100},
    {12, 22, 59, 69, 71, 75, 78, 87, 95, 96},
    {6, 8, 22, 29, 35, 40, 54, 92, 95, 97},
    {21, 25, 44, 67, 73, 85, 88, 89, 94, 96},
    {7, 14, 16, 26, 35, 45, 58, 60, 64, 81},
    {4, 9, 21, 33, 36, 52, 62, 72, 85, 88},
    {5, 9, 17, 33, 36, 51, 62, 80, 88, 93, 98},
    {38, 42, 63, 70, 71, 75, 78, 84, 86, 87},
    {6, 12, 22, 29, 35, 40, 48, 92, 95, 97},
    {2, 13, 14, 27, 32, 34, 45, 50, 64, 76},
    {18, 20, 38, 42, 57, 63, 69, 83, 84, 99},
    {18, 20, 25, 56, 63, 68, 69, 83, 89, 99},
    {7, 16, 37, 45, 50, 60, 64, 74, 79, 81},
    {12, 22, 47, 69, 71, 75, 78, 87, 95, 96},
    {7, 16, 30, 37, 45, 50, 58, 74, 79, 81},
    {6, 8, 19, 24, 29, 46, 66, 82, 90, 100},
    {4, 9, 21, 33, 44, 51, 52, 72, 85, 88},
    {20, 38, 42, 70, 71, 78, 84, 86, 87, 99},
    {14, 16, 26, 35, 43, 50, 58, 60, 77, 81},
    {1, 2, 3, 10, 23, 30, 31, 39, 41, 91},
    {6, 8, 12, 19, 22, 29, 61, 75, 90, 100},
    {16, 21, 34, 43, 44, 72, 73, 74, 81, 88, 94},
    {15, 18, 25, 49, 57, 69, 83, 85, 89, 99},
    {18, 25, 47, 57, 59, 68, 87, 89, 96, 99},
    {20, 23, 38, 42, 53, 63, 71, 78, 84, 86, 87},
    {22, 47, 53, 59, 63, 70, 75, 78, 86, 87},
    {4, 11, 21, 33, 44, 51, 62, 67, 85, 88},
    {16, 26, 40, 43, 49, 67, 77, 94, 95, 96},
    {7, 16, 30, 37, 45, 58, 60, 79, 81, 93},
    {6, 12, 22, 47, 54, 59, 71, 78, 86, 87},
    {2, 13, 14, 27, 32, 34, 45, 50, 55, 64},
    {14, 26, 35, 40, 43, 73, 92, 94, 95, 97},
    {42, 47, 53, 59, 63, 70, 71, 75, 86, 87},
    {7, 10, 30, 31, 37, 45, 58, 60, 74, 93},
    {5, 9, 17, 33, 36, 51, 52, 62, 85, 98},
    {14, 16, 26, 43, 50, 58, 60, 64, 74, 94},
    {6, 8, 13, 24, 29, 32, 34, 46, 61, 90},
    {18, 20, 25, 48, 56, 57, 63, 68, 69, 84, 99},
    {20, 38, 42, 53, 56, 63, 70, 78, 83, 99},
    {9, 15, 21, 36, 49, 51, 62, 72, 88, 89},
    {12, 42, 53, 59, 63, 70, 71, 75, 78, 87},
    {22, 47, 53, 59, 63, 69, 71, 75, 78, 86},
    {4, 9, 21, 33, 44, 49, 51, 62, 72, 85},
    {15, 18, 21, 25, 49, 57, 68, 69, 83, 85},
    {6, 8, 13, 19, 24, 29, 32, 46, 61, 82},
    {1, 2, 3, 10, 23, 37, 39, 41, 45, 65},
    {22, 26, 35, 40, 43, 48, 54, 77, 95, 97},
    {7, 10, 11, 28, 30, 31, 37, 60, 74, 79},
    {14, 16, 26, 40, 43, 73, 77, 81, 95, 96},
    {26, 35, 40, 43, 73, 77, 92, 94, 96, 97},
    {40, 43, 47, 59, 73, 77, 92, 94, 95, 97},
    {14, 19, 26, 35, 40, 43, 48, 54, 77, 92, 95},
    {5, 9, 17, 33, 36, 51, 52, 62, 80, 88},
    {20, 38, 42, 56, 57, 63, 68, 69, 83, 84},
    {6, 8, 12, 19, 24, 29, 61, 66, 75, 84, 90}
];
