n = 100;
allowed = [
    {65, 71, 75, 85},
    {17, 58, 69, 79},
    {10, 16, 21, 33},
    {5, 28, 40, 45},
    {4, 40, 45, 54},
    {13, 63, 66, 74},
    {24, 27, 44, 49},
    {18, 43, 51, 97},
    {37, 46, 80, 98},
    {3, 16, 19, 33},
    {12, 26, 50, 76},
    {25, 31, 38, 95},
    {6, 35, 41, 64, 74},
    {7, 27, 30, 44, 49},
    {23, 28, 62, 89},
    {3, 10, 19, 33},
    {2, 69, 78, 79},
    {8, 43, 66, 91},
    {10, 16, 25, 33},
    {23, 39, 55, 89},
    {3, 53, 61, 75},
    {60, 81, 87, 88, 100},
    {15, 20, 52, 89},
    {46, 80, 84, 98},
    {4, 12, 16, 38, 53},
    {11, 12, 50, 76},
    {7, 35, 39, 84},
    {4, 45, 52, 89, 96},
    {4, 36, 42, 62},
    {22, 32, 81, 99},
    {12, 25, 38, 95},
    {19, 22, 30, 33},
    {3, 10, 16, 19, 59},
    {47, 72, 86, 94},
    {27, 39, 57, 84},
    {29, 42, 62, 83},
    {9, 46, 80, 81, 98},
    {12, 25, 31, 76},
    {20, 27, 35, 55, 71},
    {4, 5, 45, 54},
    {13, 64, 74, 97},
    {20, 29, 36, 68, 83},
    {8, 18, 51, 97},
    {7, 14, 27, 49},
    {4, 5, 28, 40},
    {9, 24, 80, 98},
    {34, 59, 60, 87},
    {52, 70, 82, 89},
    {7, 14, 27, 44},
    {11, 12, 26, 44, 76},
    {8, 43, 96, 97},
    {23, 28, 48, 89},
    {3, 16, 69, 78},
    {4, 5, 40, 45, 83},
    {20, 23, 39, 73},
    {59, 60, 63, 81, 88},
    {35, 39, 55, 73},
    {2, 17, 69, 79, 82},
    {60, 81, 87, 88},
    {47, 59, 87, 88},
    {21, 48, 73, 77, 82},
    {4, 15, 29, 36},
    {6, 13, 66, 74},
    {41, 51, 96, 97},
    {1, 71, 76, 85, 90},
    {6, 18, 63, 74},
    {5, 27, 45, 54, 91},
    {36, 42, 77, 83},
    {2, 17, 58, 78},
    {48, 75, 82, 96},
    {1, 65, 85, 90},
    {34, 47, 86, 92, 94},
    {3, 33, 55, 61},
    {6, 13, 41, 63},
    {1, 21, 70, 85},
    {12, 26, 38, 50},
    {36, 42, 68, 83},
    {17, 53, 69, 79},
    {2, 17, 58, 78},
    {9, 24, 37, 46},
    {22, 56, 59, 88},
    {38, 48, 52, 70, 75},
    {14, 36, 42, 92},
    {7, 11, 24, 27, 46},
    {1, 65, 71, 75, 96},
    {34, 47, 72, 94},
    {47, 59, 60, 88},
    {22, 60, 81, 87},
    {15, 23, 28, 52},
    {1, 65, 71, 79},
    {8, 18, 43, 67},
    {20, 23, 39, 83},
    {12, 31, 95, 99},
    {34, 47, 72, 86},
    {12, 31, 38, 93},
    {43, 51, 64, 97},
    {8, 51, 64, 96},
    {9, 24, 37, 46},
    {19, 30, 93, 95},
    {24, 46, 84, 98}
];
