n = 30;
allowed = [
    {10, 14, 22, 24, 25, 27, 30},
    {8, 11, 12, 13, 15, 19, 21},
    {4, 7, 9, 18, 25, 26, 28, 29},
    {3, 7, 9, 18, 25, 28, 29},
    {6, 8, 10, 16, 17, 18, 23, 26},
    {5, 16, 17, 18, 23, 26, 28},
    {3, 17, 24, 25, 27, 28, 29},
    {2, 11, 12, 13, 19, 20, 26},
    {3, 4, 24, 25, 27, 28, 29},
    {1, 14, 15, 22, 24, 27, 30},
    {2, 8, 12, 13, 19, 20, 21},
    {2, 8, 11, 13, 19, 20, 21, 23},
    {2, 8, 11, 12, 19, 20, 21},
    {1, 10, 15, 21, 22, 24, 30},
    {1, 2, 11, 14, 16, 19, 21},
    {6, 7, 17, 21, 23, 25, 26},
    {7, 16, 24, 25, 27, 28, 29},
    {3, 4, 6, 7, 23, 28, 29},
    {2, 8, 11, 12, 13, 20, 21},
    {2, 8, 11, 12, 13, 19, 21},
    {1, 2, 11, 12, 14, 15, 19},
    {1, 10, 14, 15, 24, 25, 27, 30},
    {3, 6, 16, 17, 18, 26, 28},
    {1, 7, 22, 25, 27, 29, 30},
    {1, 7, 17, 24, 27, 28, 29},
    {5, 6, 7, 8, 16, 17, 23},
    {1, 7, 22, 24, 25, 29, 30},
    {3, 4, 7, 18, 23, 25, 29},
    {3, 4, 7, 24, 25, 27, 28},
    {1, 10, 14, 22, 24, 25, 27}
];
