n = 100;
allowed = [
    {3, 10, 11, 16, 17, 36, 50, 51, 81, 87, 92},
    {23, 24, 27, 28, 44, 47, 52, 59, 64, 75, 90},
    {1, 10, 16, 17, 36, 51, 76, 81, 87, 92},
    {14, 29, 38, 39, 43, 49, 50, 72, 83, 93},
    {10, 16, 17, 53, 57, 67, 79, 81, 84, 85},
    {13, 26, 31, 33, 39, 40, 46, 66, 70, 72},
    {37, 38, 45, 58, 61, 63, 65, 78, 93, 98},
    {12, 30, 35, 60, 64, 68, 69, 71, 73, 100},
    {19, 25, 32, 41, 55, 57, 84, 86, 88, 94},
    {3, 5, 16, 17, 36, 44, 76, 85, 92, 96},
    {13, 22, 33, 34, 46, 48, 54, 56, 66, 77},
    {8, 18, 22, 48, 60, 64, 68, 71, 73, 90, 100},
    {6, 21, 31, 33, 40, 46, 54, 56, 66, 69, 72},
    {4, 6, 29, 31, 39, 49, 72, 80, 83, 99},
    {17, 42, 53, 63, 67, 74, 81, 87, 89, 97},
    {1, 3, 5, 10, 17, 76, 81, 87, 89, 92},
    {1, 3, 5, 10, 16, 81, 87, 89, 92, 97},
    {21, 36, 51, 60, 64, 68, 71, 73, 91, 100},
    {9, 25, 32, 41, 55, 57, 62, 84, 86, 88, 94},
    {32, 41, 44, 55, 59, 75, 85, 88, 90, 96},
    {13, 18, 22, 40, 46, 48, 54, 56, 60, 100},
    {11, 13, 21, 34, 39, 48, 54, 56, 60, 71, 77},
    {2, 24, 27, 30, 47, 68, 90, 91, 95, 96},
    {2, 23, 27, 28, 30, 47, 52, 69, 90, 95},
    {9, 19, 20, 32, 41, 55, 75, 86, 88, 94},
    {6, 12, 13, 31, 33, 34, 40, 46, 54, 66, 70},
    {2, 23, 24, 28, 44, 47, 52, 59, 90, 95},
    {2, 23, 24, 27, 30, 47, 52, 59, 69, 90},
    {4, 37, 38, 49, 65, 80, 83, 93, 98, 99},
    {23, 24, 28, 35, 47, 64, 68, 69, 91, 95},
    {6, 13, 14, 33, 39, 40, 43, 66, 70, 72},
    {9, 20, 25, 41, 44, 55, 59, 75, 88, 94},
    {6, 13, 26, 31, 40, 46, 54, 66, 70, 72},
    {11, 13, 22, 26, 33, 48, 54, 56, 66, 77},
    {8, 23, 24, 30, 47, 64, 68, 69, 73, 82, 95},
    {1, 3, 10, 51, 64, 68, 76, 91, 92, 95},
    {7, 29, 38, 50, 62, 63, 65, 87, 93, 98},
    {29, 37, 49, 50, 65, 80, 83, 93, 98, 99},
    {4, 6, 14, 26, 31, 33, 40, 43, 49, 72, 83},
    {6, 13, 21, 31, 33, 43, 46, 54, 56, 72},
    {9, 19, 20, 25, 32, 44, 55, 75, 88, 94},
    {15, 37, 58, 62, 63, 74, 82, 87, 89, 97},
    {4, 6, 13, 31, 33, 39, 40, 46, 51, 72},
    {20, 27, 32, 55, 59, 75, 76, 85, 90, 96},
    {7, 37, 42, 58, 61, 63, 65, 78, 82, 98},
    {6, 13, 21, 31, 33, 40, 43, 54, 56, 72},
    {23, 24, 27, 30, 35, 64, 68, 69, 91, 95},
    {11, 13, 21, 22, 34, 54, 56, 60, 71, 77},
    {4, 14, 29, 38, 50, 65, 80, 83, 93, 99},
    {4, 29, 37, 38, 49, 62, 65, 83, 87, 93},
    {1, 3, 4, 18, 21, 36, 43, 50, 72, 87},
    {2, 23, 24, 27, 28, 44, 47, 59, 75, 90},
    {5, 15, 57, 67, 74, 79, 81, 84, 89, 97},
    {13, 22, 33, 34, 40, 46, 48, 56, 66, 77},
    {9, 20, 25, 32, 41, 44, 75, 86, 88, 94},
    {13, 21, 22, 33, 40, 46, 48, 54, 66, 77},
    {5, 25, 53, 55, 67, 79, 84, 85, 86, 88},
    {7, 37, 42, 45, 61, 63, 74, 78, 82, 98},
    {2, 20, 27, 32, 44, 52, 75, 85, 90, 96},
    {12, 18, 21, 22, 48, 54, 56, 71, 73, 100},
    {7, 37, 42, 45, 58, 63, 65, 78, 82, 98},
    {7, 29, 37, 38, 50, 63, 65, 87, 93, 98},
    {7, 37, 42, 58, 62, 65, 74, 87, 89, 97},
    {18, 23, 30, 36, 47, 68, 73, 91, 95, 100},
    {7, 29, 37, 38, 49, 50, 62, 63, 93, 98},
    {6, 13, 26, 31, 33, 34, 40, 46, 54, 70},
    {5, 15, 17, 53, 57, 79, 81, 84, 89, 97},
    {18, 23, 30, 36, 47, 64, 73, 91, 95, 100},
    {2, 8, 23, 24, 27, 28, 30, 35, 47, 95},
    {6, 13, 14, 26, 31, 33, 39, 40, 66, 72},
    {8, 12, 18, 21, 22, 48, 56, 60, 73, 100},
    {4, 6, 13, 14, 31, 33, 39, 40, 43, 46},
    {8, 12, 18, 30, 35, 60, 64, 68, 71, 100},
    {15, 42, 58, 63, 67, 81, 82, 87, 89, 97},
    {2, 20, 25, 32, 41, 44, 52, 55, 59, 90},
    {3, 10, 16, 36, 44, 59, 85, 90, 92, 96},
    {11, 13, 22, 26, 33, 34, 48, 54, 56, 66},
    {7, 37, 45, 51, 58, 61, 63, 65, 80, 93, 98},
    {5, 9, 53, 55, 57, 61, 67, 84, 85, 86, 88},
    {7, 14, 29, 38, 49, 65, 83, 93, 98, 99},
    {3, 5, 15, 16, 17, 67, 87, 89, 92, 97},
    {15, 42, 45, 58, 61, 63, 67, 74, 89, 97},
    {4, 14, 29, 38, 39, 49, 50, 80, 93, 99},
    {5, 20, 53, 55, 57, 67, 79, 85, 86, 88},
    {5, 10, 20, 44, 59, 76, 84, 90, 92, 96},
    {5, 9, 25, 41, 55, 57, 79, 84, 88, 94},
    {1, 16, 17, 37, 50, 62, 63, 81, 89, 97},
    {9, 19, 20, 25, 32, 41, 55, 84, 86, 94},
    {15, 17, 42, 53, 63, 67, 74, 81, 87, 97},
    {2, 20, 27, 44, 52, 59, 75, 76, 85, 96},
    {18, 23, 30, 36, 47, 64, 68, 76, 95, 100},
    {1, 3, 10, 16, 17, 36, 76, 81, 85, 96},
    {4, 29, 37, 38, 49, 65, 80, 83, 98, 99},
    {9, 19, 20, 25, 32, 41, 55, 75, 86, 88},
    {23, 24, 30, 36, 47, 64, 68, 76, 91, 96},
    {3, 10, 20, 23, 44, 59, 76, 85, 90, 92, 95},
    {15, 17, 42, 53, 63, 67, 74, 81, 87, 89},
    {7, 29, 37, 38, 49, 62, 65, 80, 93, 99},
    {4, 14, 28, 29, 38, 49, 65, 80, 83, 93, 98},
    {12, 18, 21, 36, 60, 64, 68, 71, 73, 91}
];
