n = 30;
allowed = [
    {8, 11, 17, 21, 22},
    {16, 24, 25, 28, 29},
    {9, 13, 18, 23, 27, 30},
    {5, 6, 8, 19, 21},
    {4, 6, 8, 19, 30},
    {5, 13, 18, 19, 30},
    {10, 12, 14, 16, 24},
    {1, 4, 5, 11, 17, 21},
    {3, 6, 18, 23, 27},
    {7, 12, 14, 16, 24},
    {1, 17, 20, 21, 26},
    {1, 7, 10, 14, 20, 26},
    {3, 6, 18, 27, 30},
    {7, 10, 12, 20, 26},
    {2, 9, 23, 28, 29},
    {2, 7, 10, 24, 25},
    {11, 12, 14, 18, 20, 26},
    {3, 6, 9, 13, 27},
    {4, 5, 6, 13, 21, 30},
    {11, 12, 14, 17, 26},
    {1, 4, 5, 8, 11},
    {1, 4, 8, 11, 21},
    {3, 9, 15, 27, 28},
    {2, 7, 10, 16, 29},
    {2, 10, 16, 24, 29},
    {7, 11, 14, 17, 20},
    {3, 6, 9, 13, 18},
    {2, 15, 24, 25, 29},
    {2, 15, 16, 24, 25, 28},
    {5, 6, 13, 18, 19}
];
