n = 20;
allowed = [
    {4, 5, 6, 11, 20},
    {11, 12, 14, 18, 19},
    {7, 10, 11, 14, 16, 17},
    {8, 9, 10, 13, 15, 20},
    {1, 6, 11, 15, 18},
    {1, 4, 5, 11, 20},
    {3, 10, 11, 16, 17},
    {4, 9, 10, 13, 20},
    {4, 8, 10, 13, 20},
    {4, 8, 9, 13, 20},
    {1, 3, 7, 16, 17},
    {2, 5, 14, 18, 19},
    {4, 8, 9, 10, 20},
    {2, 11, 12, 18, 19},
    {1, 4, 5, 6, 8},
    {3, 7, 10, 11, 17},
    {3, 7, 10, 11, 16},
    {2, 11, 12, 14, 19},
    {2, 11, 12, 13, 14, 18},
    {4, 8, 9, 10, 13}
];
