n = 20;
allowed = [
    {4, 5, 7, 8, 11, 12, 14, 17, 19, 20},
    {7, 8, 9, 10, 12, 14, 15, 16, 18, 20},
    {2, 4, 5, 6, 8, 9, 13, 15, 18, 19},
    {1, 5, 6, 7, 8, 9, 11, 13, 18, 19},
    {1, 3, 4, 6, 8, 9, 11, 13, 18, 19},
    {1, 3, 4, 5, 8, 9, 11, 13, 18, 19},
    {1, 2, 8, 10, 11, 12, 14, 16, 17, 20},
    {1, 4, 5, 6, 7, 9, 11, 14, 18, 19},
    {2, 3, 4, 5, 6, 8, 13, 15, 18, 19},
    {1, 2, 7, 8, 11, 12, 14, 16, 17, 20},
    {1, 4, 7, 8, 10, 12, 14, 16, 17, 20},
    {1, 2, 7, 8, 10, 11, 14, 16, 17, 20},
    {2, 3, 4, 5, 6, 8, 9, 15, 18, 19},
    {1, 2, 7, 8, 10, 11, 12, 16, 17, 20},
    {2, 3, 5, 6, 7, 8, 9, 13, 16, 18},
    {2, 4, 7, 8, 10, 11, 12, 14, 17, 20},
    {1, 4, 7, 8, 10, 11, 12, 14, 16, 20},
    {2, 3, 4, 5, 6, 8, 9, 13, 15, 19},
    {1, 3, 4, 5, 6, 8, 9, 11, 13, 18},
    {1, 2, 7, 8, 10, 11, 12, 14, 16, 17}
];
