n = 30;
allowed = [
    {11, 15, 19, 25, 27},
    {5, 9, 13, 22, 30},
    {4, 16, 23, 24, 26},
    {3, 16, 18, 24, 26},
    {2, 9, 13, 22, 29},
    {4, 10, 18, 23, 26},
    {10, 12, 16, 17, 21},
    {7, 10, 12, 17, 21},
    {2, 5, 13, 22, 29},
    {16, 21, 23, 26, 28},
    {1, 15, 19, 20, 25, 27},
    {7, 8, 10, 21, 24, 28},
    {2, 5, 9, 22, 29},
    {1, 11, 15, 25, 27},
    {1, 11, 19, 25, 27},
    {3, 4, 21, 24, 26},
    {7, 14, 16, 21, 26, 27},
    {3, 4, 6, 19, 23, 26},
    {1, 9, 11, 13, 25},
    {6, 10, 18, 23, 28},
    {7, 10, 16, 26, 28},
    {5, 9, 13, 29, 30},
    {6, 10, 18, 26, 28},
    {3, 4, 16, 18, 21, 26},
    {1, 11, 15, 19, 27},
    {3, 4, 16, 21, 23},
    {1, 11, 15, 17, 25},
    {6, 8, 10, 21, 23, 26},
    {5, 9, 13, 22, 30},
    {2, 5, 9, 22, 25, 29}
];
