n = 30;
allowed = [
    {3, 4, 10, 15, 16, 17, 18},
    {10, 20, 23, 24, 25, 27, 28, 30},
    {1, 5, 10, 15, 16, 17, 18},
    {1, 6, 7, 13, 14, 21, 29},
    {1, 3, 10, 15, 16, 17, 20},
    {4, 11, 13, 14, 21, 22, 26},
    {1, 4, 14, 15, 16, 17, 22, 29},
    {3, 12, 18, 21, 22, 23, 24, 30},
    {2, 5, 7, 10, 19, 20, 25, 27},
    {1, 3, 5, 16, 17, 20, 23},
    {6, 12, 13, 18, 21, 22, 26},
    {8, 11, 13, 18, 21, 22, 30},
    {4, 6, 11, 18, 21, 22, 26},
    {4, 6, 7, 13, 21, 26, 29},
    {1, 3, 5, 7, 10, 16, 17},
    {1, 3, 5, 10, 15, 17, 20},
    {1, 3, 5, 10, 15, 16, 20},
    {1, 3, 12, 13, 21, 22, 30},
    {2, 5, 9, 10, 20, 25, 27},
    {2, 5, 9, 10, 23, 25, 27},
    {4, 6, 8, 11, 12, 13, 18, 22},
    {6, 11, 12, 13, 18, 21, 26},
    {2, 10, 20, 24, 27, 28, 30},
    {2, 10, 20, 23, 27, 28, 30},
    {2, 5, 9, 10, 19, 20, 27},
    {4, 6, 11, 13, 14, 21, 22},
    {2, 10, 20, 23, 24, 28, 30},
    {2, 10, 20, 23, 24, 27, 30},
    {1, 4, 6, 7, 13, 14, 15},
    {2, 8, 18, 23, 24, 27, 28}
];
