n = 100;
allowed = [
    {9, 37, 51, 61, 73, 77, 78, 80, 87, 99},
    {6, 20, 30, 42, 52, 62, 64, 69, 89, 93},
    {15, 28, 33, 35, 44, 50, 53, 56, 83, 96},
    {23, 25, 32, 34, 43, 47, 55, 59, 60, 75},
    {14, 16, 18, 29, 57, 63, 66, 68, 76, 90},
    {12, 19, 24, 30, 41, 49, 69, 81, 89, 95},
    {2, 10, 20, 36, 42, 46, 62, 64, 91, 93},
    {4, 26, 28, 34, 55, 61, 75, 83, 84, 87},
    {1, 51, 61, 73, 77, 78, 80, 87, 88, 97},
    {2, 7, 12, 20, 42, 46, 62, 64, 91, 93},
    {17, 31, 37, 58, 65, 67, 71, 77, 78, 99},
    {2, 6, 19, 24, 30, 38, 40, 42, 49, 81, 89},
    {17, 22, 31, 33, 45, 54, 67, 68, 70, 100},
    {5, 16, 22, 29, 57, 63, 68, 71, 76, 85},
    {3, 28, 33, 35, 44, 50, 53, 70, 83, 100},
    {13, 22, 29, 39, 54, 66, 68, 72, 85, 96},
    {13, 22, 26, 31, 33, 45, 58, 67, 70, 100},
    {5, 16, 36, 39, 63, 66, 72, 76, 90, 98},
    {6, 25, 30, 38, 41, 49, 69, 79, 81, 95},
    {2, 7, 36, 52, 62, 64, 72, 74, 93, 98},
    {25, 27, 38, 47, 48, 59, 60, 86, 92, 94},
    {13, 14, 16, 17, 29, 57, 67, 68, 71, 85},
    {4, 25, 32, 41, 47, 48, 59, 60, 75, 79},
    {6, 12, 19, 30, 38, 41, 42, 49, 81, 89},
    {19, 23, 32, 41, 47, 48, 49, 59, 60, 81},
    {7, 17, 31, 45, 58, 70, 82, 83, 84, 97, 100},
    {21, 23, 25, 47, 48, 59, 60, 86, 92, 94},
    {3, 8, 15, 44, 50, 53, 55, 56, 79, 83},
    {5, 14, 16, 22, 57, 63, 68, 71, 76, 85},
    {6, 12, 19, 24, 41, 49, 69, 81, 89, 95},
    {13, 17, 45, 58, 65, 67, 82, 97, 99, 100},
    {4, 23, 25, 41, 47, 55, 60, 75, 79, 95},
    {3, 15, 35, 45, 53, 54, 70, 83, 96, 100},
    {4, 8, 23, 26, 28, 32, 40, 43, 55, 75, 87},
    {3, 15, 33, 44, 50, 53, 54, 56, 74, 96},
    {18, 20, 39, 52, 62, 66, 72, 74, 93, 98},
    {1, 11, 51, 58, 65, 77, 78, 82, 97, 99},
    {6, 12, 19, 24, 25, 41, 48, 49, 59, 81},
    {16, 36, 52, 54, 66, 72, 74, 93, 96, 98},
    {4, 8, 9, 34, 43, 61, 75, 80, 87, 88},
    {6, 19, 25, 30, 49, 69, 79, 81, 89, 95},
    {2, 6, 10, 12, 20, 24, 30, 64, 89, 91},
    {4, 8, 9, 34, 40, 61, 75, 80, 87, 88},
    {3, 15, 28, 35, 50, 53, 56, 69, 79, 95},
    {17, 26, 31, 58, 67, 70, 82, 83, 84, 100},
    {2, 7, 10, 12, 20, 24, 42, 62, 64, 91},
    {4, 23, 25, 27, 32, 48, 59, 60, 92, 94},
    {19, 21, 23, 25, 27, 38, 47, 59, 60, 86},
    {6, 19, 25, 30, 41, 69, 79, 81, 89, 95},
    {3, 15, 28, 35, 44, 53, 56, 69, 79, 95},
    {1, 9, 28, 37, 61, 73, 77, 78, 80, 97, 99},
    {20, 35, 36, 39, 62, 64, 72, 74, 93, 98},
    {3, 15, 28, 33, 35, 44, 50, 55, 56, 83},
    {13, 15, 16, 33, 35, 70, 72, 96, 98, 100},
    {3, 8, 15, 28, 32, 34, 44, 53, 79, 83},
    {3, 28, 35, 44, 50, 53, 69, 79, 89, 95},
    {5, 14, 16, 22, 29, 63, 68, 71, 76, 85},
    {17, 26, 31, 45, 65, 67, 78, 82, 97, 99},
    {21, 23, 25, 27, 47, 48, 60, 86, 92, 94},
    {4, 23, 25, 27, 32, 47, 48, 59, 92, 94},
    {1, 9, 73, 77, 78, 80, 82, 87, 88, 97},
    {2, 7, 10, 20, 36, 52, 64, 74, 91, 93},
    {5, 14, 16, 18, 29, 57, 68, 76, 85, 90},
    {2, 6, 20, 30, 42, 52, 62, 69, 89, 93},
    {11, 31, 37, 58, 67, 77, 78, 82, 97, 99},
    {5, 16, 18, 36, 39, 72, 74, 90, 93, 98},
    {11, 13, 17, 31, 45, 58, 65, 82, 99, 100},
    {13, 14, 16, 17, 22, 29, 54, 57, 71, 85},
    {6, 30, 41, 44, 49, 56, 79, 81, 89, 95},
    {13, 15, 17, 26, 33, 45, 54, 83, 96, 100},
    {11, 13, 14, 17, 22, 29, 57, 60, 67, 68, 85},
    {16, 36, 39, 52, 54, 66, 74, 93, 96, 98},
    {1, 9, 37, 51, 61, 77, 78, 80, 87, 88},
    {14, 20, 35, 36, 39, 52, 54, 72, 93, 96, 98},
    {4, 8, 23, 32, 34, 40, 43, 47, 55, 60},
    {5, 14, 16, 18, 29, 57, 63, 68, 85, 90},
    {1, 31, 37, 58, 61, 65, 78, 82, 97, 99},
    {1, 31, 37, 58, 61, 65, 77, 82, 97, 99},
    {19, 32, 41, 44, 49, 56, 69, 81, 89, 95},
    {1, 9, 40, 51, 61, 73, 77, 78, 87, 88},
    {6, 19, 25, 30, 41, 49, 63, 69, 79, 89, 95},
    {26, 31, 45, 58, 65, 77, 78, 84, 97, 99},
    {15, 26, 28, 33, 45, 53, 55, 70, 84, 100},
    {8, 26, 31, 45, 58, 70, 82, 83, 97, 100},
    {11, 13, 14, 16, 17, 22, 29, 57, 68, 71},
    {21, 25, 27, 38, 47, 48, 59, 60, 92, 94},
    {1, 8, 9, 61, 73, 77, 78, 80, 88, 97},
    {1, 8, 9, 34, 40, 43, 61, 73, 80, 87},
    {2, 6, 30, 41, 49, 56, 69, 79, 81, 95},
    {5, 16, 18, 36, 39, 63, 66, 72, 76, 93, 98},
    {2, 7, 10, 12, 20, 42, 46, 62, 64, 93},
    {4, 21, 27, 47, 48, 59, 60, 75, 86, 94},
    {2, 20, 36, 39, 52, 62, 64, 72, 74, 98},
    {4, 21, 23, 27, 46, 47, 48, 59, 60, 86, 92},
    {19, 30, 41, 44, 49, 56, 69, 79, 81, 89},
    {3, 15, 33, 35, 39, 54, 70, 72, 98, 100},
    {26, 31, 45, 58, 65, 77, 78, 82, 84, 99},
    {16, 36, 39, 52, 54, 66, 72, 74, 93, 96},
    {11, 31, 37, 58, 65, 67, 77, 78, 82, 97},
    {13, 17, 26, 31, 33, 45, 67, 70, 83, 84}
];
