n = 50;
allowed = [
    {14, 22, 24, 39, 42, 44, 46},
    {11, 12, 19, 21, 31, 32, 34, 41},
    {4, 18, 28, 29, 33, 45, 47},
    {3, 9, 18, 28, 29, 33, 47},
    {6, 16, 18, 23, 26, 31, 35},
    {5, 16, 18, 23, 26, 35, 45},
    {17, 24, 25, 27, 29, 42, 45},
    {11, 12, 13, 19, 20, 34, 37},
    {3, 4, 28, 29, 33, 47, 50},
    {1, 14, 22, 30, 38, 40, 46},
    {2, 12, 13, 19, 32, 34, 37},
    {8, 11, 13, 19, 20, 34, 37},
    {8, 11, 12, 19, 20, 34, 37},
    {1, 10, 36, 38, 39, 40, 44},
    {2, 21, 36, 39, 41, 43, 44},
    {6, 7, 17, 26, 43, 45, 49},
    {7, 16, 24, 25, 29, 45, 49},
    {3, 4, 6, 23, 28, 45, 47},
    {2, 11, 12, 13, 32, 34, 37},
    {8, 11, 12, 13, 18, 19, 34, 37},
    {2, 15, 36, 39, 41, 43, 44},
    {1, 24, 27, 30, 42, 46, 48},
    {3, 6, 17, 18, 28, 35, 45},
    {7, 22, 25, 27, 29, 42, 46},
    {2, 7, 17, 24, 27, 29, 42, 45},
    {6, 16, 17, 23, 35, 43, 49},
    {24, 25, 29, 30, 42, 48, 50},
    {3, 4, 7, 18, 29, 45, 47},
    {3, 4, 7, 24, 25, 27, 28},
    {1, 22, 24, 27, 42, 46, 48},
    {5, 8, 10, 12, 16, 20, 26, 35},
    {2, 11, 12, 19, 34, 37, 41},
    {3, 4, 9, 18, 28, 29, 47},
    {2, 11, 12, 13, 19, 32, 37},
    {5, 6, 16, 18, 23, 26, 45},
    {14, 15, 21, 38, 39, 41, 44},
    {8, 11, 12, 13, 19, 20, 34},
    {1, 10, 14, 22, 40, 44, 46},
    {1, 14, 15, 21, 36, 38, 42, 44},
    {1, 10, 14, 22, 36, 38, 46},
    {2, 11, 12, 15, 21, 43, 49},
    {1, 22, 24, 27, 30, 46, 48},
    {15, 16, 21, 26, 39, 41, 49},
    {1, 14, 15, 21, 36, 39, 42},
    {3, 7, 17, 18, 23, 28, 29},
    {1, 22, 24, 30, 38, 42, 48},
    {3, 4, 9, 28, 29, 33, 50},
    {1, 9, 22, 24, 27, 30, 42, 46},
    {15, 16, 17, 21, 26, 41, 43},
    {9, 24, 25, 27, 29, 30, 48}
];
