n = 100;
allowed = [
    {62, 71, 84},
    {29, 55, 56},
    {65, 77, 81, 96},
    {42, 44, 47},
    {4, 6, 42, 72},
    {5, 30, 88},
    {14, 38, 87},
    {4, 44, 79},
    {18, 49, 74, 85},
    {46, 57, 92},
    {1, 53, 71},
    {10, 57, 92},
    {80, 89, 95},
    {38, 43, 87},
    {23, 73, 97},
    {24, 34, 60},
    {3, 20, 26, 53},
    {27, 74, 88},
    {33, 51, 67},
    {16, 26, 83, 86},
    {8, 54, 79, 84},
    {58, 62, 82},
    {15, 37, 73},
    {16, 34, 60},
    {29, 75, 76},
    {20, 43, 83},
    {74, 77, 81, 83},
    {45, 50, 56},
    {45, 55, 64, 66},
    {6, 43, 69, 80},
    {25, 32, 44, 76},
    {31, 68, 94},
    {6, 19, 67},
    {11, 16, 24, 60},
    {52, 56, 61},
    {30, 69, 85},
    {23, 28, 49, 73},
    {7, 14, 87},
    {59, 90, 92},
    {62, 82, 99},
    {58, 62, 84},
    {4, 47, 78},
    {14, 26, 87},
    {4, 8, 47},
    {55, 64, 98},
    {10, 57, 90, 92},
    {4, 42, 44, 97},
    {15, 63, 98},
    {74, 77, 81},
    {2, 28, 56},
    {19, 67, 78},
    {9, 35, 54},
    {17, 20, 26},
    {9, 52, 61},
    {29, 45, 64},
    {2, 35, 50},
    {10, 12, 92},
    {22, 41, 62},
    {45, 83, 86, 93},
    {16, 24, 34},
    {35, 54, 72},
    {1, 22, 71, 82},
    {45, 48, 98},
    {29, 45, 98},
    {13, 89, 94, 95},
    {13, 27, 77},
    {19, 33, 51},
    {32, 91, 94},
    {30, 36, 85},
    {34, 60, 76, 96},
    {1, 8, 62, 84},
    {35, 61, 70},
    {23, 37, 52},
    {27, 49, 77},
    {25, 29, 47, 76},
    {25, 31, 75},
    {27, 74, 81},
    {19, 42, 51},
    {8, 21, 84},
    {13, 89, 95},
    {27, 49, 77},
    {22, 40, 62},
    {20, 26, 86},
    {1, 41, 71},
    {30, 36, 69},
    {59, 83, 93},
    {7, 14, 38, 40},
    {5, 6, 18},
    {13, 65, 95},
    {39, 59, 82, 92},
    {39, 68, 94},
    {10, 12, 57},
    {59, 83, 86},
    {32, 68, 91},
    {13, 80, 89},
    {7, 43, 70},
    {15, 23, 31, 73},
    {45, 63, 64},
    {40, 82, 100},
    {5, 17, 53, 99}
];
