n = 50;
allowed = [
    {11, 15, 36, 38},
    {5, 9, 33, 39},
    {4, 24, 48},
    {3, 24, 48},
    {2, 9, 13},
    {18, 23, 47},
    {17, 33, 50},
    {7, 12, 27, 50},
    {5, 13, 22},
    {21, 28, 31},
    {1, 15, 36},
    {8, 34, 50},
    {5, 9, 41},
    {32, 43, 44, 46},
    {1, 11, 46},
    {3, 26, 39, 48},
    {7, 33, 35},
    {6, 13, 23, 47},
    {1, 13, 28, 41},
    {6, 38, 42},
    {10, 26, 31},
    {9, 13, 29},
    {6, 31, 47},
    {3, 4, 32, 48},
    {1, 36, 46},
    {16, 31, 48},
    {15, 32, 40},
    {10, 34, 37},
    {9, 22, 30},
    {9, 20, 22, 29},
    {10, 21, 26},
    {27, 43, 46},
    {7, 17, 43, 50},
    {10, 28, 50},
    {7, 17, 33},
    {1, 25, 46},
    {10, 19, 28, 42},
    {6, 20, 42},
    {2, 5, 49},
    {15, 16, 27},
    {9, 13, 22},
    {6, 20, 35, 38},
    {14, 32, 46},
    {2, 37, 45, 49},
    {18, 44, 49},
    {15, 25, 36},
    {6, 23, 31, 49},
    {3, 16, 26},
    {2, 44, 45},
    {7, 12, 34}
];
