n = 50;
allowed = [
    {8, 9, 11, 26, 31, 34, 37, 40, 43, 45},
    {6, 7, 10, 12, 20, 24, 30, 42, 49, 50},
    {8, 15, 17, 26, 28, 33, 35, 44, 45, 50},
    {8, 23, 25, 27, 32, 34, 40, 43, 47, 48},
    {13, 14, 16, 17, 18, 22, 29, 33, 36, 39},
    {2, 12, 19, 24, 25, 30, 38, 41, 42, 49},
    {2, 6, 10, 12, 20, 30, 36, 39, 42, 46},
    {4, 15, 23, 26, 28, 32, 34, 40, 43, 45},
    {1, 4, 8, 12, 26, 31, 34, 37, 40, 43, 45},
    {2, 6, 7, 12, 20, 24, 30, 36, 42, 46},
    {1, 13, 14, 17, 22, 26, 29, 31, 37, 45},
    {2, 6, 19, 24, 25, 30, 38, 41, 42, 49},
    {11, 15, 16, 17, 22, 26, 29, 31, 33, 45},
    {5, 11, 13, 16, 17, 18, 22, 29, 31, 39},
    {3, 8, 17, 26, 28, 33, 35, 44, 45, 50},
    {5, 13, 14, 17, 18, 22, 29, 33, 39, 45},
    {3, 11, 13, 15, 16, 22, 26, 31, 33, 45},
    {5, 13, 14, 16, 20, 22, 29, 33, 36, 39, 46},
    {6, 23, 24, 25, 30, 32, 38, 41, 48, 49},
    {2, 3, 7, 30, 35, 36, 39, 42, 44, 50},
    {4, 19, 23, 25, 27, 32, 38, 47, 48, 49},
    {5, 11, 13, 14, 16, 17, 29, 31, 33, 45},
    {4, 19, 25, 27, 32, 34, 41, 47, 48, 49},
    {2, 6, 12, 19, 25, 30, 38, 41, 42, 49},
    {4, 19, 23, 27, 32, 38, 41, 47, 48, 49},
    {3, 8, 13, 15, 17, 28, 31, 33, 34, 45},
    {4, 19, 21, 23, 25, 32, 38, 39, 41, 47, 48},
    {3, 8, 15, 26, 32, 33, 34, 35, 44, 50},
    {5, 11, 13, 14, 16, 17, 18, 22, 31, 39},
    {2, 6, 12, 19, 24, 41, 42, 44, 49, 50},
    {1, 11, 13, 15, 17, 22, 26, 33, 37, 45},
    {4, 19, 23, 25, 28, 34, 41, 47, 48, 49},
    {3, 13, 15, 17, 26, 28, 35, 44, 45, 50},
    {4, 8, 15, 23, 26, 28, 32, 40, 43, 47},
    {2, 3, 4, 15, 20, 28, 30, 33, 39, 44, 50},
    {2, 5, 7, 10, 16, 18, 20, 35, 39, 50},
    {1, 8, 9, 11, 13, 17, 22, 26, 31, 45},
    {6, 12, 19, 21, 24, 25, 30, 41, 48, 49},
    {3, 13, 16, 18, 20, 22, 33, 35, 36, 50},
    {1, 4, 8, 9, 23, 28, 32, 34, 43, 47},
    {6, 19, 23, 24, 25, 30, 32, 38, 44, 49},
    {2, 6, 7, 10, 12, 20, 24, 30, 46, 49},
    {4, 8, 9, 23, 27, 28, 32, 34, 40, 47},
    {3, 15, 28, 30, 32, 33, 35, 41, 49, 50},
    {3, 8, 11, 13, 15, 17, 26, 28, 31, 33},
    {2, 6, 7, 10, 12, 20, 24, 30, 35, 36, 42},
    {4, 19, 21, 23, 25, 27, 32, 34, 41, 48},
    {19, 21, 23, 25, 27, 32, 38, 41, 47, 49},
    {6, 12, 19, 23, 24, 25, 30, 32, 38, 41},
    {3, 15, 20, 28, 30, 33, 35, 41, 44, 49}
];
