n = 20;
allowed = [
    {3, 4, 11, 14, 15, 16, 19},
    {3, 4, 5, 9, 13, 18, 19},
    {4, 5, 6, 10, 16, 17, 18},
    {2, 3, 5, 6, 10, 16, 18},
    {2, 3, 4, 9, 13, 18, 19},
    {2, 3, 4, 10, 16, 18, 20},
    {3, 4, 8, 10, 12, 16, 17},
    {3, 4, 6, 7, 10, 12, 16, 17},
    {2, 3, 4, 5, 8, 13, 18, 19},
    {3, 4, 6, 7, 12, 16, 18, 20},
    {1, 3, 4, 14, 15, 16, 19},
    {3, 6, 7, 8, 10, 16, 17},
    {1, 2, 3, 4, 5, 9, 19},
    {1, 3, 11, 15, 16, 17, 19},
    {1, 3, 11, 14, 16, 17, 19},
    {3, 4, 6, 7, 10, 17, 18},
    {3, 7, 10, 11, 12, 15, 16},
    {2, 3, 4, 5, 6, 10, 16},
    {1, 2, 5, 9, 11, 13, 15},
    {2, 3, 4, 6, 10, 16, 18}
];
