n = 50;
allowed = [
    {3, 8, 19, 20, 21, 36, 42},
    {10, 11, 15, 16, 32, 39, 47},
    {9, 19, 20, 21, 24, 36, 42},
    {6, 12, 18, 31, 33, 45, 48},
    {14, 24, 25, 31, 37, 38, 50},
    {4, 10, 18, 33, 41, 44, 45},
    {10, 12, 14, 25, 32, 37, 39},
    {1, 17, 20, 21, 26, 30, 40},
    {3, 19, 24, 29, 31, 35, 36, 42},
    {4, 6, 7, 12, 16, 39, 45},
    {2, 10, 15, 16, 32, 39, 47},
    {4, 6, 7, 10, 37, 39, 45},
    {17, 22, 26, 27, 28, 40, 46},
    {5, 7, 25, 31, 37, 38, 50},
    {2, 6, 10, 11, 16, 32, 39},
    {2, 6, 10, 12, 15, 32, 39},
    {13, 22, 26, 27, 28, 30, 40},
    {4, 6, 33, 41, 44, 45, 48},
    {1, 3, 20, 21, 24, 36, 42},
    {3, 8, 19, 21, 24, 30, 42},
    {3, 8, 19, 20, 23, 24, 36, 42},
    {13, 17, 26, 28, 40, 46, 49},
    {3, 18, 33, 34, 35, 43, 44, 48},
    {3, 5, 19, 20, 21, 38, 42},
    {5, 7, 12, 14, 37, 38, 50},
    {13, 17, 22, 27, 28, 30, 40},
    {13, 17, 26, 28, 30, 40, 50},
    {13, 22, 26, 27, 40, 46, 49},
    {9, 31, 34, 35, 36, 43, 48},
    {8, 13, 16, 17, 20, 26, 27, 40},
    {4, 5, 14, 29, 37, 38, 45},
    {2, 7, 10, 12, 16, 39, 47},
    {4, 6, 18, 41, 44, 45, 48},
    {4, 23, 29, 33, 35, 43, 48},
    {4, 9, 23, 29, 34, 43, 48},
    {1, 3, 9, 19, 21, 24, 42},
    {5, 7, 12, 14, 25, 38, 50},
    {5, 14, 24, 25, 31, 37, 42},
    {6, 7, 9, 10, 12, 15, 16, 32},
    {13, 17, 22, 26, 27, 28, 30},
    {4, 6, 10, 18, 33, 44, 45},
    {3, 19, 20, 21, 24, 36, 38},
    {18, 23, 33, 34, 35, 44, 48},
    {6, 18, 33, 41, 43, 45, 48},
    {2, 4, 6, 12, 18, 33, 41, 48},
    {13, 22, 26, 27, 28, 49, 50},
    {7, 25, 32, 39, 46, 49, 50},
    {4, 18, 23, 33, 34, 35, 43},
    {13, 22, 26, 27, 28, 46, 50},
    {5, 13, 14, 25, 27, 28, 37}
];
