n = 30;
allowed = [
    {3, 4, 5, 10, 15, 16, 17, 18, 21, 23},
    {3, 5, 10, 20, 23, 24, 25, 27, 28, 30},
    {1, 4, 5, 10, 15, 16, 17, 18, 20, 23},
    {1, 3, 6, 7, 13, 14, 17, 21, 26, 29},
    {1, 3, 9, 10, 15, 16, 17, 20, 22, 23, 25},
    {1, 4, 11, 13, 14, 18, 21, 22, 26, 29},
    {1, 3, 4, 5, 6, 14, 15, 16, 17, 29},
    {2, 12, 18, 21, 22, 23, 24, 27, 28, 30},
    {2, 5, 10, 15, 16, 19, 20, 25, 27, 28},
    {1, 2, 3, 5, 16, 17, 20, 23, 24, 27},
    {4, 6, 8, 12, 13, 14, 18, 21, 22, 26},
    {6, 8, 11, 13, 18, 21, 22, 23, 24, 29, 30},
    {4, 6, 11, 12, 14, 18, 21, 22, 26, 29},
    {1, 4, 6, 7, 11, 13, 18, 21, 26, 29},
    {1, 3, 4, 5, 7, 10, 16, 17, 20, 29},
    {1, 3, 4, 5, 10, 15, 17, 18, 20, 23},
    {1, 3, 4, 5, 10, 15, 16, 18, 20, 23},
    {1, 3, 4, 8, 12, 13, 21, 22, 23, 30},
    {2, 5, 9, 10, 15, 16, 20, 25, 27, 28},
    {2, 5, 9, 10, 16, 19, 23, 24, 25, 27},
    {1, 4, 6, 11, 12, 13, 14, 18, 22, 26},
    {4, 6, 8, 11, 12, 13, 14, 18, 21, 26},
    {2, 3, 10, 16, 18, 20, 24, 27, 28, 30},
    {2, 3, 8, 10, 18, 20, 23, 27, 28, 30},
    {2, 5, 9, 10, 16, 19, 20, 24, 27, 28},
    {4, 6, 11, 12, 13, 14, 18, 21, 22, 29},
    {2, 3, 10, 16, 20, 23, 24, 25, 28, 30},
    {2, 3, 8, 10, 20, 23, 24, 25, 27, 30},
    {1, 3, 4, 6, 7, 13, 14, 15, 17, 26},
    {2, 3, 8, 10, 12, 18, 23, 24, 27, 28}
];
