n = 100;
allowed = [
    {42, 46, 54, 63, 89},
    {11, 32, 34, 90, 93},
    {4, 28, 47, 53, 66, 94},
    {3, 28, 47, 53, 66},
    {35, 71, 75, 76, 100},
    {23, 35, 65, 74, 84},
    {17, 25, 29, 77, 79},
    {12, 19, 20, 62, 96},
    {47, 53, 57, 68, 85},
    {14, 38, 40, 69, 82},
    {12, 19, 34, 37, 62},
    {11, 19, 34, 37, 62},
    {12, 19, 20, 37, 62},
    {10, 38, 56, 83, 88},
    {21, 36, 39, 41, 44, 77},
    {26, 49, 59, 65, 87},
    {7, 18, 25, 77, 79, 87},
    {23, 28, 51, 74, 92, 98},
    {11, 12, 34, 37, 62},
    {8, 12, 13, 37, 62},
    {2, 15, 41, 43, 93},
    {30, 46, 48, 69, 89},
    {6, 18, 51, 74, 84},
    {25, 27, 42, 54, 95},
    {7, 24, 29, 77, 79},
    {16, 59, 60, 65, 87},
    {24, 55, 61, 81, 95},
    {3, 4, 66, 67, 73},
    {25, 53, 66, 67, 77},
    {22, 46, 48, 69, 81, 95},
    {8, 64, 70, 76, 86, 96},
    {2, 11, 34, 90, 93},
    {4, 47, 78, 85, 99},
    {2, 11, 12, 19, 37},
    {5, 6, 71, 84, 100},
    {56, 58, 83, 88, 91},
    {11, 12, 13, 19, 62},
    {10, 14, 40, 80, 82, 83},
    {1, 15, 44, 56, 88},
    {10, 38, 52, 82, 97},
    {2, 15, 21, 43, 93},
    {1, 24, 46, 54, 63},
    {41, 49, 59, 72, 92},
    {1, 39, 56, 63, 88},
    {17, 28, 66, 73, 77},
    {1, 22, 42, 63, 89},
    {3, 4, 33, 53, 85},
    {22, 30, 46, 69, 81},
    {13, 16, 43, 59, 72, 92},
    {27, 30, 55, 61, 68, 81},
    {18, 23, 28, 74, 98},
    {10, 23, 38, 40, 69, 82},
    {3, 4, 29, 47, 67},
    {1, 24, 42, 63, 89},
    {27, 50, 61, 68, 81},
    {14, 36, 44, 83, 88},
    {9, 50, 53, 68, 85},
    {36, 56, 90, 91, 93},
    {16, 26, 49, 72, 87},
    {6, 26, 35, 43, 65, 71},
    {27, 50, 55, 68, 81},
    {12, 13, 19, 20, 37},
    {1, 42, 46, 54, 89},
    {52, 71, 75, 76, 86, 94},
    {16, 26, 59, 60, 87},
    {3, 28, 29, 67, 73},
    {25, 29, 53, 66, 77},
    {9, 50, 55, 57, 61},
    {22, 30, 46, 48, 82},
    {5, 35, 74, 84, 100},
    {5, 64, 76, 86, 100},
    {16, 43, 49, 59, 92},
    {28, 45, 66, 67, 77},
    {6, 18, 23, 51, 84},
    {5, 71, 76, 86, 94},
    {5, 64, 71, 75, 86},
    {7, 17, 25, 45, 79},
    {9, 33, 47, 85, 99},
    {7, 17, 25, 77, 87},
    {11, 19, 32, 34, 37},
    {27, 50, 55, 61, 95},
    {10, 38, 46, 69, 89},
    {14, 36, 56, 88, 97},
    {6, 23, 35, 70, 74, 81},
    {9, 33, 47, 57, 78},
    {64, 71, 75, 76, 94},
    {16, 17, 26, 59, 65},
    {36, 39, 44, 56, 83},
    {1, 22, 42, 46, 63},
    {2, 32, 34, 91, 93},
    {15, 36, 58, 90, 93},
    {43, 49, 59, 72, 79},
    {2, 21, 41, 90, 91},
    {64, 71, 75, 76, 86},
    {17, 24, 27, 55, 61, 81},
    {8, 12, 20, 31, 62},
    {14, 36, 38, 56, 83},
    {18, 23, 28, 51, 74},
    {4, 33, 47, 78, 85},
    {5, 35, 71, 72, 75, 76}
];
