n = 50;
allowed = [
    {6, 8, 13, 17, 21, 41, 43},
    {3, 12, 16, 17, 21, 25, 38},
    {10, 16, 19, 21, 25, 33, 48},
    {5, 15, 28, 29, 36, 40, 45},
    {4, 8, 15, 28, 40, 43, 45},
    {1, 5, 8, 13, 18, 41, 43},
    {14, 24, 27, 39, 44, 46, 49},
    {1, 5, 6, 13, 18, 41, 43},
    {7, 24, 34, 37, 44, 46, 47},
    {3, 16, 19, 21, 25, 32, 33},
    {2, 12, 25, 26, 31, 38, 50},
    {16, 19, 25, 26, 31, 38, 50},
    {1, 6, 8, 14, 18, 41, 43, 48},
    {7, 24, 27, 35, 39, 44, 49},
    {4, 12, 20, 23, 28, 29, 36, 45},
    {3, 10, 19, 21, 25, 33, 38},
    {1, 2, 3, 10, 16, 21, 25},
    {5, 6, 8, 13, 41, 43, 45},
    {3, 10, 16, 25, 30, 32, 33},
    {15, 23, 27, 28, 35, 39, 48},
    {1, 3, 10, 16, 17, 33, 40, 48},
    {9, 19, 21, 30, 32, 34, 46, 47},
    {4, 15, 20, 28, 39, 45, 48},
    {7, 9, 27, 37, 44, 46, 49},
    {3, 10, 12, 16, 19, 31, 38},
    {2, 11, 12, 25, 31, 38, 50},
    {7, 14, 24, 35, 39, 44, 49},
    {4, 5, 15, 23, 40, 45, 48},
    {4, 15, 28, 36, 40, 42, 45},
    {10, 16, 19, 22, 31, 32, 33},
    {12, 16, 19, 25, 26, 38, 50},
    {10, 16, 19, 22, 30, 33, 35},
    {3, 10, 16, 19, 21, 30, 32},
    {9, 22, 24, 32, 37, 46, 47},
    {7, 14, 20, 24, 27, 39, 44},
    {4, 15, 23, 28, 29, 40, 42},
    {7, 9, 24, 34, 44, 46, 47},
    {12, 16, 19, 25, 26, 31, 50},
    {7, 14, 20, 23, 27, 35, 44, 47},
    {4, 5, 15, 28, 29, 43, 45},
    {1, 6, 8, 13, 18, 43, 48},
    {4, 14, 15, 23, 28, 29, 36},
    {5, 6, 8, 13, 18, 41, 45},
    {7, 14, 24, 27, 39, 46, 49},
    {4, 5, 15, 23, 28, 40, 48},
    {7, 9, 24, 27, 37, 41, 44, 49},
    {9, 22, 24, 30, 34, 37, 46},
    {15, 20, 21, 23, 28, 43, 45},
    {7, 14, 24, 27, 39, 44, 46},
    {2, 11, 12, 25, 26, 31, 38}
];
