n = 50;
allowed = [
    {2, 3, 10, 23, 31, 39, 41},
    {7, 10, 23, 30, 37, 45, 50},
    {1, 2, 10, 23, 31, 39, 41},
    {9, 11, 21, 33, 36, 42, 44, 49},
    {4, 9, 15, 17, 21, 33, 36},
    {8, 12, 19, 22, 29, 35, 48},
    {2, 10, 16, 30, 37, 45, 50},
    {6, 12, 13, 24, 29, 32, 48},
    {4, 5, 17, 21, 33, 36, 44},
    {2, 7, 23, 30, 31, 37, 45},
    {4, 28, 30, 31, 33, 37, 44},
    {6, 8, 22, 29, 40, 47, 48},
    {8, 27, 29, 32, 34, 48, 50},
    {7, 16, 26, 35, 40, 43, 50},
    {5, 9, 18, 21, 25, 36, 49},
    {7, 14, 26, 35, 37, 43, 50},
    {4, 5, 9, 15, 21, 33, 36},
    {15, 20, 21, 25, 36, 47, 49},
    {6, 8, 12, 13, 24, 29, 46},
    {15, 18, 22, 25, 38, 42, 47},
    {4, 9, 15, 25, 33, 44, 49},
    {6, 12, 29, 35, 40, 47, 48},
    {1, 2, 3, 10, 30, 39, 41},
    {2, 6, 8, 13, 19, 29, 32, 46},
    {15, 18, 20, 21, 40, 47, 49},
    {14, 16, 35, 40, 43, 48, 50},
    {13, 14, 32, 34, 35, 45, 50},
    {7, 10, 11, 30, 31, 37, 39},
    {4, 6, 8, 12, 19, 22, 35, 48},
    {2, 7, 10, 28, 31, 37, 45},
    {7, 10, 11, 28, 30, 37, 39, 46},
    {2, 8, 13, 27, 34, 47, 48, 50},
    {4, 5, 9, 17, 21, 36, 44},
    {8, 13, 27, 32, 45, 48, 50},
    {14, 16, 26, 40, 43, 48, 50},
    {4, 5, 9, 15, 17, 21, 33},
    {2, 7, 10, 16, 30, 45, 50},
    {3, 12, 18, 20, 22, 25, 42, 47},
    {1, 3, 10, 23, 28, 31, 41},
    {14, 16, 26, 35, 43, 48, 50},
    {1, 2, 3, 10, 23, 31, 39},
    {12, 18, 20, 22, 25, 38, 47},
    {14, 16, 26, 35, 40, 48, 50},
    {4, 11, 16, 21, 33, 43, 49},
    {2, 7, 10, 16, 30, 37, 50},
    {6, 8, 13, 19, 24, 29, 32},
    {12, 22, 25, 40, 43, 48, 49},
    {6, 8, 22, 26, 29, 35, 40},
    {4, 15, 21, 25, 40, 43, 44},
    {7, 14, 16, 26, 35, 37, 45}
];
