n = 50;
allowed = [
    {14, 23, 40, 41},
    {11, 13, 24, 31, 42},
    {12, 40, 46, 50},
    {6, 15, 33, 38, 48},
    {20, 28, 30, 45},
    {5, 11, 15, 24, 37},
    {15, 26, 33, 43},
    {3, 19, 47, 50},
    {17, 22, 25, 32},
    {16, 18, 21, 34},
    {13, 24, 48, 49},
    {3, 29, 40, 46},
    {2, 11, 24, 31},
    {1, 9, 17, 25},
    {6, 26, 33, 37},
    {10, 18, 21, 38},
    {9, 14, 22, 25},
    {10, 16, 21, 27},
    {3, 4, 8, 47, 50},
    {5, 28, 30, 45},
    {10, 18, 30, 34},
    {9, 17, 23, 32},
    {1, 27, 32, 41},
    {2, 11, 13, 31},
    {1, 9, 14, 17},
    {7, 15, 29, 33},
    {18, 23, 32, 41},
    {21, 27, 30, 36},
    {12, 26, 35, 40},
    {21, 28, 34, 36},
    {2, 11, 13, 24},
    {9, 22, 23, 27},
    {7, 15, 26, 37},
    {10, 18, 21, 30},
    {7, 26, 28, 36},
    {27, 28, 30, 41},
    {6, 15, 24, 33},
    {10, 16, 18, 21, 43},
    {11, 13, 48, 49},
    {1, 12, 15, 29, 41},
    {1, 23, 27, 36, 40},
    {3, 12, 31, 46},
    {7, 26, 33, 44},
    {7, 8, 20, 43, 45},
    {5, 20, 43, 44},
    {3, 12, 31, 42},
    {3, 8, 19, 50},
    {4, 11, 39, 49},
    {11, 13, 39, 48},
    {3, 8, 19, 47}
];
