n = 30;
allowed = [
    {4, 8, 9, 11, 13, 15, 17, 22, 26, 28},
    {3, 6, 7, 10, 12, 15, 19, 20, 24, 30},
    {2, 6, 8, 13, 15, 17, 20, 26, 28, 30},
    {3, 6, 8, 15, 19, 21, 23, 25, 27, 28},
    {10, 11, 13, 14, 15, 16, 17, 18, 20, 22, 29},
    {2, 3, 12, 19, 20, 23, 24, 25, 28, 30},
    {2, 3, 6, 10, 12, 18, 19, 20, 24, 30},
    {1, 3, 4, 9, 13, 15, 17, 23, 26, 28},
    {1, 4, 8, 11, 13, 15, 17, 23, 26, 28},
    {2, 3, 6, 7, 12, 18, 19, 20, 24, 30},
    {1, 9, 13, 14, 15, 16, 17, 22, 26, 29},
    {2, 6, 7, 10, 19, 20, 23, 24, 25, 30},
    {3, 11, 14, 15, 16, 17, 22, 26, 28, 29},
    {5, 11, 13, 15, 16, 17, 18, 22, 26, 29},
    {3, 4, 8, 13, 16, 17, 22, 23, 26, 28},
    {3, 5, 13, 14, 15, 17, 18, 22, 26, 29},
    {3, 11, 13, 14, 15, 16, 22, 26, 28, 29},
    {3, 5, 7, 13, 14, 16, 17, 20, 22, 29},
    {2, 4, 6, 12, 23, 24, 25, 27, 28, 30},
    {2, 3, 6, 7, 10, 12, 15, 18, 24, 30},
    {4, 6, 9, 12, 19, 23, 24, 25, 27, 28, 30},
    {5, 11, 13, 14, 15, 16, 17, 18, 26, 29},
    {3, 4, 6, 8, 19, 21, 25, 27, 28, 30},
    {2, 6, 10, 12, 19, 20, 23, 25, 27, 30},
    {4, 6, 12, 19, 21, 23, 24, 27, 28, 30},
    {1, 3, 8, 11, 13, 15, 16, 17, 22, 28},
    {4, 6, 8, 19, 21, 23, 24, 25, 28, 30},
    {3, 4, 8, 13, 15, 17, 19, 23, 25, 26},
    {5, 11, 13, 14, 15, 16, 17, 18, 22, 26},
    {2, 3, 6, 12, 19, 20, 23, 24, 25, 28}
];
