n = 20;
allowed = [
    {3, 5, 8, 9, 15, 17, 19, 20},
    {6, 7, 10, 11, 12, 13, 15, 16},
    {1, 5, 8, 9, 14, 19, 20},
    {5, 6, 7, 10, 12, 14, 18, 20},
    {3, 4, 7, 12, 14, 19, 20},
    {4, 7, 10, 12, 15, 16, 18},
    {4, 5, 6, 10, 12, 14, 16},
    {1, 3, 5, 13, 17, 19, 20},
    {1, 3, 4, 5, 14, 19, 20},
    {4, 6, 7, 12, 14, 16, 18},
    {2, 6, 7, 10, 12, 15, 16},
    {4, 6, 7, 10, 14, 16, 18},
    {3, 5, 7, 8, 12, 14, 17, 20},
    {3, 4, 5, 7, 10, 12, 13},
    {2, 6, 7, 10, 11, 12, 16},
    {2, 6, 7, 10, 11, 12, 15},
    {3, 5, 8, 13, 14, 19, 20},
    {4, 6, 7, 10, 12, 14, 16},
    {1, 3, 5, 8, 9, 17, 20},
    {1, 3, 5, 8, 13, 17, 19}
];
