n = 50;
allowed = [
    {2, 7, 45, 48},
    {16, 29, 45, 46},
    {23, 34, 37, 41},
    {9, 17, 20, 42},
    {10, 13, 30, 50},
    {15, 18, 27, 30},
    {1, 34, 45, 49},
    {31, 38, 43, 47},
    {4, 12, 17, 20},
    {5, 13, 24, 33},
    {26, 31, 32, 37},
    {9, 20, 40, 44},
    {10, 24, 28, 33},
    {12, 22, 35, 44},
    {6, 16, 29, 46},
    {2, 15, 29, 46},
    {4, 20, 39, 42},
    {6, 21, 27, 30},
    {4, 35, 42, 50},
    {4, 9, 17, 39},
    {6, 18, 19, 22, 27},
    {18, 21, 27, 30},
    {3, 34, 36, 41},
    {5, 10, 13, 33},
    {3, 26, 37, 38},
    {11, 32, 36, 37},
    {6, 18, 21, 29},
    {5, 10, 13, 25, 33},
    {2, 15, 45, 46, 48},
    {5, 6, 18, 22},
    {11, 32, 43, 47},
    {11, 16, 26, 31, 37},
    {10, 13, 24, 28},
    {7, 23, 41, 49},
    {4, 9, 14, 19},
    {3, 23, 37, 45},
    {3, 23, 26, 36},
    {8, 11, 25, 37},
    {4, 17, 20, 40},
    {3, 9, 12, 39, 44},
    {3, 6, 23, 34, 49},
    {4, 9, 17, 20},
    {8, 22, 31, 44, 47},
    {9, 12, 14, 40},
    {1, 2, 7, 29},
    {2, 15, 16, 29},
    {8, 31, 43, 44},
    {1, 2, 16, 46, 50},
    {7, 23, 34, 41},
    {5, 10, 21, 22, 30}
];
