n = 30;
allowed = [
    {3, 8, 9, 19, 20},
    {10, 11, 15, 16},
    {19, 20, 21, 24},
    {6, 8, 10, 12, 18},
    {14, 21, 24, 25},
    {4, 10, 12, 18},
    {10, 12, 14, 25},
    {2, 17, 20, 21, 30},
    {3, 19, 24, 29},
    {6, 7, 12, 16},
    {2, 10, 15, 16},
    {4, 6, 7, 10},
    {22, 26, 27, 28},
    {5, 7, 12, 25},
    {2, 10, 11, 16, 23},
    {6, 10, 12, 15},
    {11, 22, 26, 27, 30},
    {4, 6, 10, 12},
    {1, 3, 21, 24},
    {8, 21, 24, 30},
    {3, 19, 20, 24},
    {13, 17, 26, 28},
    {4, 6, 18, 29},
    {3, 5, 19, 21},
    {5, 7, 12, 14},
    {13, 17, 27, 30},
    {13, 26, 28, 30},
    {13, 22, 26, 27},
    {3, 4, 9, 24},
    {17, 20, 26, 27}
];
