n = 50;
allowed = [
    {14, 40, 41},
    {13, 24, 31},
    {5, 12, 46, 50},
    {6, 33, 35, 48},
    {20, 28, 45},
    {15, 24, 37},
    {15, 26, 33},
    {19, 47, 50},
    {17, 22, 32},
    {18, 21, 34},
    {13, 24, 49},
    {3, 29, 46},
    {2, 11, 24},
    {1, 17, 25, 38},
    {6, 33, 37},
    {10, 18, 38},
    {9, 22, 25},
    {10, 21, 27},
    {8, 39, 47, 50},
    {5, 28, 45},
    {10, 18, 34},
    {9, 17, 25, 32},
    {27, 32, 41},
    {11, 13, 31},
    {1, 14, 17},
    {7, 15, 33},
    {18, 23, 32},
    {27, 30, 36},
    {12, 26, 40},
    {21, 28, 36},
    {2, 13, 24, 50},
    {9, 22, 27},
    {7, 15, 26},
    {4, 10, 18, 21},
    {26, 28, 36, 45},
    {27, 28, 30},
    {6, 15, 33},
    {10, 16, 18},
    {11, 48, 49},
    {1, 29, 41},
    {1, 23, 27},
    {3, 12, 46},
    {7, 33, 44},
    {7, 43, 45},
    {5, 20, 43, 44},
    {3, 12, 42},
    {8, 19, 50},
    {11, 39, 49},
    {11, 13, 23, 39},
    {8, 19, 47}
];
