n = 100;
allowed = [
    {20, 29, 43, 48, 56},
    {18, 50, 55, 61, 95},
    {21, 26, 33, 68, 93},
    {19, 22, 72, 87, 97},
    {80, 86, 88, 92, 98},
    {3, 13, 21, 26, 39, 51},
    {54, 71, 88, 91, 99},
    {41, 53, 58, 78, 90},
    {16, 25, 66, 75, 81},
    {24, 28, 32, 82, 83},
    {14, 24, 70, 73, 98},
    {17, 42, 70, 89, 94},
    {6, 39, 64, 79, 100},
    {11, 40, 73, 96, 98},
    {47, 66, 67, 76, 81},
    {9, 13, 47, 66, 81},
    {18, 42, 89, 94, 95},
    {2, 17, 55, 61, 95},
    {4, 22, 41, 76, 87, 97},
    {1, 29, 56, 80, 86},
    {3, 6, 26, 33, 39},
    {4, 19, 72, 87, 97},
    {30, 31, 34, 67, 77},
    {10, 28, 32, 65, 83},
    {9, 27, 63, 66, 75},
    {3, 33, 49, 68, 93},
    {25, 63, 75, 79, 100},
    {10, 24, 44, 53, 82, 83},
    {1, 20, 48, 56, 64, 80},
    {23, 34, 69, 77, 90},
    {23, 34, 58, 67, 76},
    {10, 11, 24, 37, 65, 83},
    {3, 26, 49, 68, 93},
    {23, 30, 31, 58, 67},
    {18, 42, 44, 55, 56, 61},
    {4, 19, 22, 72, 87},
    {24, 32, 65, 73, 83},
    {26, 28, 49, 68, 89, 93},
    {3, 6, 13, 21, 64},
    {5, 14, 88, 96, 98},
    {8, 19, 69, 90, 97},
    {12, 17, 44, 94, 95},
    {7, 21, 86, 88, 91, 99},
    {10, 28, 42, 82, 94},
    {23, 30, 44, 67, 69, 77},
    {54, 57, 59, 71, 78},
    {15, 48, 66, 76, 81},
    {1, 29, 47, 56, 81},
    {26, 33, 38, 68, 93},
    {2, 18, 36, 49, 51, 95},
    {2, 49, 50, 60, 93},
    {7, 54, 74, 85, 91},
    {8, 46, 58, 59, 78},
    {7, 52, 71, 91, 99},
    {2, 18, 35, 61, 95},
    {1, 20, 29, 47, 48},
    {46, 54, 59, 71, 74},
    {8, 23, 30, 34, 90},
    {46, 53, 57, 72, 78},
    {2, 18, 55, 61, 84},
    {2, 18, 35, 55, 60},
    {52, 57, 74, 85, 96},
    {25, 27, 75, 79, 100},
    {6, 13, 16, 21, 39},
    {10, 24, 32, 37, 83},
    {9, 15, 16, 47, 81},
    {23, 31, 34, 76, 77},
    {3, 26, 33, 49, 81, 93},
    {8, 30, 41, 77, 90},
    {5, 12, 80, 89, 92},
    {7, 46, 54, 91, 99},
    {4, 19, 22, 38, 59, 87},
    {11, 14, 24, 37, 96},
    {50, 52, 54, 57, 62, 85},
    {9, 25, 27, 63, 100},
    {23, 31, 34, 47, 67},
    {23, 30, 34, 45, 69},
    {8, 46, 53, 59, 72},
    {13, 27, 57, 63, 75, 100},
    {5, 20, 70, 86, 92},
    {15, 16, 47, 66, 76},
    {10, 24, 28, 44, 83},
    {10, 24, 28, 32, 82},
    {2, 18, 55, 60, 61, 85},
    {52, 57, 62, 74, 96},
    {5, 43, 80, 92, 98},
    {4, 19, 22, 36, 97},
    {7, 40, 43, 91, 98},
    {12, 17, 38, 42, 95},
    {8, 13, 30, 41, 58, 69},
    {7, 54, 71, 88, 99},
    {5, 70, 80, 86, 98},
    {3, 26, 33, 49, 68},
    {17, 28, 42, 44, 82},
    {2, 17, 18, 42, 89},
    {1, 14, 40, 73, 88, 98},
    {4, 19, 22, 41, 87},
    {5, 40, 86, 88, 92},
    {7, 43, 54, 71, 91},
    {13, 27, 63, 75, 79}
];
