n = 50;
allowed = [
    {7, 10, 12, 20, 23, 24, 30, 35, 39, 48},
    {7, 13, 14, 15, 20, 24, 25, 30, 39, 47},
    {8, 9, 18, 28, 32, 33, 34, 42, 43, 46},
    {5, 17, 19, 22, 27, 29, 36, 41, 45, 50},
    {6, 16, 21, 27, 29, 31, 41, 44, 45, 49},
    {5, 14, 15, 16, 29, 31, 34, 43, 44, 49},
    {1, 2, 12, 20, 23, 24, 25, 30, 39, 48},
    {3, 9, 18, 28, 32, 33, 34, 42, 43, 46},
    {3, 8, 18, 28, 32, 33, 42, 43, 46, 47},
    {1, 7, 12, 15, 20, 23, 31, 35, 48, 49},
    {3, 8, 18, 28, 32, 37, 40, 44, 45, 46},
    {1, 7, 10, 20, 23, 24, 30, 35, 39, 48},
    {2, 7, 24, 25, 30, 33, 39, 42, 43, 47},
    {6, 15, 16, 21, 29, 31, 35, 39, 48, 49},
    {2, 7, 14, 16, 23, 31, 35, 39, 48, 49},
    {6, 14, 15, 21, 29, 31, 35, 44, 48, 49},
    {4, 5, 16, 19, 21, 22, 27, 29, 36, 41},
    {3, 8, 9, 11, 28, 32, 33, 37, 40, 46},
    {4, 5, 17, 22, 27, 29, 36, 41, 45, 50},
    {1, 7, 10, 12, 23, 24, 30, 35, 39, 48},
    {10, 14, 15, 16, 26, 29, 31, 35, 48, 49},
    {4, 5, 17, 19, 27, 29, 36, 41, 45, 50},
    {1, 7, 10, 12, 14, 15, 20, 35, 39, 48},
    {1, 2, 7, 13, 15, 20, 25, 30, 39, 48},
    {2, 7, 13, 15, 20, 24, 30, 39, 42, 47},
    {10, 16, 17, 21, 23, 31, 35, 38, 48, 49},
    {4, 5, 17, 19, 21, 22, 29, 36, 41, 45},
    {3, 8, 9, 11, 18, 32, 37, 40, 43, 46},
    {5, 6, 14, 15, 16, 19, 21, 31, 44, 45, 49},
    {1, 2, 7, 12, 13, 20, 23, 24, 25, 39},
    {6, 10, 14, 15, 16, 21, 29, 35, 48, 49},
    {3, 8, 9, 18, 28, 34, 37, 42, 43, 46},
    {3, 8, 9, 28, 32, 34, 42, 43, 46, 47},
    {3, 6, 8, 14, 32, 33, 42, 43, 44, 47},
    {7, 10, 12, 14, 15, 23, 31, 39, 48, 49},
    {4, 5, 17, 19, 22, 27, 29, 38, 41, 45, 50},
    {11, 18, 28, 32, 34, 40, 43, 44, 45, 46},
    {10, 12, 16, 21, 23, 26, 31, 35, 40, 48, 49},
    {2, 7, 15, 20, 23, 24, 25, 30, 35, 48},
    {2, 3, 8, 9, 11, 18, 28, 32, 37, 45, 46},
    {4, 5, 17, 19, 22, 27, 29, 36, 44, 45},
    {3, 8, 9, 13, 25, 32, 33, 34, 43, 47},
    {3, 6, 8, 9, 32, 33, 34, 42, 44, 47},
    {5, 6, 14, 16, 29, 34, 37, 42, 43, 45},
    {5, 6, 11, 22, 27, 29, 36, 37, 41, 44},
    {3, 8, 9, 11, 18, 28, 32, 33, 37, 40},
    {2, 9, 13, 24, 25, 33, 34, 39, 42, 43},
    {1, 7, 10, 14, 15, 23, 31, 35, 39, 49},
    {6, 10, 14, 15, 16, 21, 29, 31, 35, 48},
    {4, 5, 17, 19, 22, 27, 36, 37, 41, 45}
];
