n = 50;
allowed = [
    {8, 19, 20, 36},
    {11, 15, 16, 39},
    {19, 21, 24, 42},
    {3, 6, 18, 33, 45},
    {14, 25, 37, 38},
    {1, 18, 33, 41, 45},
    {10, 12, 25, 37},
    {17, 20, 21, 30},
    {3, 29, 36, 42},
    {6, 7, 12, 39},
    {2, 15, 16, 39},
    {7, 10, 39, 45},
    {22, 26, 27, 28},
    {5, 25, 37, 38},
    {2, 11, 16, 39},
    {4, 10, 15, 32, 39},
    {22, 26, 30, 40},
    {6, 33, 41, 45},
    {3, 21, 36, 42},
    {8, 21, 24, 30, 44},
    {3, 20, 24, 42},
    {13, 17, 26, 28},
    {34, 35, 43, 48},
    {3, 19, 21, 42},
    {5, 7, 14, 37},
    {17, 27, 30, 40},
    {13, 26, 30, 40},
    {13, 22, 26, 46},
    {9, 31, 34, 35},
    {17, 26, 27, 40},
    {4, 5, 29, 38},
    {7, 16, 39, 47},
    {18, 41, 44, 45},
    {23, 35, 43, 48},
    {29, 34, 43, 48},
    {3, 9, 19, 42},
    {5, 7, 14, 25},
    {5, 11, 14, 31, 37},
    {10, 12, 16, 32},
    {17, 26, 27, 30, 50},
    {6, 18, 33, 44},
    {3, 19, 21, 24},
    {23, 34, 35, 48},
    {6, 10, 18, 33, 41},
    {4, 6, 18, 33},
    {13, 22, 28, 49},
    {7, 25, 32, 38, 50},
    {23, 31, 34, 35, 43},
    {13, 22, 28, 46},
    {13, 14, 20, 27, 28}
];
