n = 100;
allowed = [
    {75, 97, 98},
    {3, 58, 72},
    {2, 20, 58},
    {56, 60, 81},
    {37, 51, 69, 88},
    {12, 30, 57},
    {52, 66, 70},
    {14, 18, 80, 90},
    {48, 71, 99},
    {17, 45, 79},
    {12, 33, 57, 94},
    {11, 57, 94},
    {11, 26, 29, 94},
    {32, 42, 55},
    {47, 48, 71, 76},
    {37, 63, 89},
    {10, 45, 62, 79},
    {39, 65, 100},
    {10, 17, 35},
    {3, 49, 58},
    {57, 64, 92, 96},
    {47, 52, 67},
    {34, 48, 50},
    {33, 70, 82, 85},
    {32, 40, 81},
    {38, 47, 52, 91},
    {64, 92, 95},
    {33, 62, 77},
    {11, 13, 94},
    {6, 12, 13, 57},
    {41, 72, 86},
    {14, 25, 40},
    {24, 85, 100},
    {23, 44, 48, 99},
    {8, 10, 17, 19},
    {40, 82, 91},
    {16, 63, 89},
    {26, 28, 62},
    {53, 65, 83},
    {32, 36, 61},
    {31, 72, 86},
    {14, 30, 35, 55},
    {4, 60, 71},
    {5, 20, 49, 53},
    {10, 17, 79},
    {7, 66, 70},
    {22, 52, 67},
    {9, 23, 99},
    {3, 20, 23, 58},
    {23, 34, 48},
    {64, 69, 92},
    {7, 22, 66},
    {59, 84, 97},
    {38, 70, 90},
    {14, 42, 61},
    {4, 60, 81},
    {6, 11, 12},
    {3, 20, 49},
    {75, 84, 97},
    {4, 43, 56},
    {36, 40, 91},
    {28, 38, 77},
    {16, 37, 89},
    {27, 51, 92},
    {18, 39, 83},
    {7, 46, 70},
    {22, 47, 52, 72},
    {17, 21, 45, 79},
    {5, 51, 88},
    {46, 54, 66},
    {9, 43, 48},
    {31, 41, 86},
    {76, 83, 87},
    {78, 88, 93},
    {59, 84, 97},
    {73, 85, 100},
    {24, 28, 50, 62},
    {74, 88, 93},
    {10, 17, 45},
    {8, 95, 98},
    {4, 25, 56},
    {24, 36, 85},
    {39, 65, 68, 73},
    {59, 64, 75, 97},
    {24, 33, 76},
    {31, 41, 72, 87},
    {10, 45, 73},
    {5, 74, 78},
    {16, 19, 37, 63},
    {8, 54, 80},
    {15, 36, 40, 61},
    {27, 46, 51, 64},
    {1, 75, 98},
    {11, 12, 57},
    {27, 74, 78},
    {27, 29, 46, 80},
    {1, 59, 84},
    {1, 2, 75, 93},
    {9, 34, 48},
    {65, 76, 85}
];
