n = 30;
allowed = [
    {2, 3, 10, 21, 23},
    {7, 10, 23, 30},
    {1, 2, 10, 23},
    {9, 11, 17, 21},
    {4, 9, 15, 17, 19},
    {8, 12, 22, 29, 30},
    {2, 10, 16, 30},
    {6, 12, 13, 29},
    {4, 5, 17, 21},
    {2, 7, 23, 30},
    {4, 16, 28, 29, 30},
    {6, 8, 22, 29},
    {8, 24, 27, 29},
    {7, 16, 26, 27},
    {9, 18, 21, 25},
    {7, 14, 26, 28, 30},
    {4, 5, 9, 15},
    {15, 20, 21, 25},
    {6, 8, 24, 29},
    {5, 15, 18, 22, 25},
    {4, 9, 15, 25},
    {6, 8, 12, 29},
    {1, 2, 3, 10},
    {8, 13, 19, 29},
    {15, 18, 20, 21},
    {7, 14, 16, 27},
    {7, 13, 14, 26},
    {7, 10, 11, 30},
    {6, 8, 12, 22},
    {2, 7, 10, 28}
];
