n = 30;
allowed = [
    {7, 12, 20, 23, 30},
    {7, 13, 24, 25, 30},
    {8, 9, 11, 18, 28},
    {5, 17, 19, 22, 26, 27},
    {6, 16, 21, 27, 29},
    {5, 14, 15, 16, 29},
    {1, 2, 20, 24, 30},
    {3, 9, 11, 18, 28},
    {3, 8, 13, 18, 28},
    {1, 3, 12, 15, 20, 23},
    {3, 6, 8, 18, 28},
    {1, 7, 10, 20, 23},
    {2, 7, 24, 25, 30},
    {6, 15, 16, 21, 29},
    {2, 7, 14, 16, 23},
    {6, 14, 15, 21, 29},
    {5, 19, 21, 22, 27},
    {3, 8, 9, 11, 28},
    {4, 5, 17, 22, 27},
    {1, 7, 12, 23, 30},
    {10, 14, 15, 16, 29},
    {4, 5, 17, 19, 27},
    {1, 7, 10, 12, 20},
    {2, 7, 13, 25, 30},
    {2, 7, 13, 24, 30},
    {10, 16, 17, 21, 23},
    {5, 17, 19, 22, 29},
    {3, 8, 9, 11, 18, 22},
    {2, 5, 6, 14, 16, 21},
    {1, 2, 7, 20, 24}
];
