n = 20;
allowed = [
    {3, 11, 14, 15, 19, 20},
    {4, 5, 9, 13, 18},
    {4, 6, 10, 14, 16, 18},
    {3, 6, 10, 16, 18},
    {2, 4, 6, 9, 13, 19},
    {3, 4, 10, 18, 20},
    {8, 10, 12, 16, 17},
    {7, 10, 12, 16, 17},
    {2, 4, 5, 13, 19},
    {3, 4, 6, 7, 16},
    {1, 3, 15, 16, 19},
    {7, 8, 10, 15, 16, 17},
    {2, 4, 5, 9, 19},
    {1, 11, 15, 17, 19},
    {1, 11, 14, 17, 19},
    {3, 4, 7, 10, 17},
    {3, 7, 10, 15, 16},
    {2, 3, 4, 6, 16},
    {1, 5, 9, 11, 13},
    {3, 4, 6, 9, 10, 18}
];
