n = 100;
allowed = [
    {19, 35, 42},
    {23, 85, 95},
    {74, 88, 94},
    {30, 39, 97},
    {6, 40, 97},
    {70, 72, 97},
    {28, 40, 82},
    {54, 71, 90},
    {30, 39, 92},
    {18, 49, 52},
    {33, 66, 86},
    {11, 14, 32, 98},
    {29, 50, 65, 75},
    {12, 32, 98},
    {14, 51, 87},
    {2, 17, 19, 26},
    {26, 46, 56},
    {10, 49, 52},
    {1, 35, 42},
    {4, 41, 69},
    {43, 51, 78},
    {21, 43, 61, 78},
    {2, 59, 95},
    {61, 93, 99},
    {23, 64, 83},
    {16, 17, 19},
    {63, 81, 91},
    {38, 45, 84},
    {13, 50, 75},
    {4, 9, 39, 82},
    {58, 65, 71, 89},
    {12, 14, 98},
    {11, 80, 90},
    {82, 96, 100},
    {1, 19, 57},
    {9, 92, 100},
    {57, 76, 85},
    {28, 45, 84},
    {4, 9, 30},
    {5, 7, 82},
    {20, 69, 78},
    {46, 48, 77},
    {21, 22, 53},
    {57, 68, 79},
    {28, 38, 84},
    {42, 48, 56},
    {6, 12, 62, 98},
    {42, 46, 94},
    {10, 18, 52},
    {13, 29, 60},
    {15, 21, 87},
    {10, 18, 49, 62},
    {43, 51, 91},
    {8, 58, 90},
    {73, 86, 88},
    {17, 42, 46},
    {35, 44, 79},
    {8, 18, 37, 54},
    {2, 23, 90, 95},
    {13, 29, 50},
    {24, 89, 93},
    {12, 47, 98},
    {27, 81, 91},
    {23, 25, 59, 76},
    {31, 70, 72},
    {77, 86, 94},
    {27, 31, 63, 91},
    {32, 44, 63, 79},
    {20, 39, 41, 55},
    {6, 65, 72, 73},
    {8, 54, 78, 90},
    {6, 70, 97},
    {55, 74, 88},
    {3, 88, 94},
    {13, 29, 80},
    {30, 37, 44, 57},
    {42, 66, 94},
    {21, 22, 43},
    {44, 57, 68},
    {33, 75, 83, 86},
    {12, 27, 63},
    {7, 40, 67, 100},
    {2, 25, 68},
    {24, 38, 61},
    {2, 37, 41, 95},
    {11, 33, 66},
    {15, 16, 51, 53},
    {3, 73, 74, 87},
    {31, 49, 61},
    {8, 54, 71},
    {22, 43, 53},
    {9, 36, 39},
    {4, 24, 61, 99},
    {48, 74, 77},
    {2, 23, 59},
    {7, 34, 75, 100},
    {5, 6, 72},
    {12, 14, 32},
    {24, 52, 93},
    {34, 40, 82}
];
