n = 50;
allowed = [
    {5, 6, 9, 12, 21, 22, 23, 37, 39, 43, 46},
    {4, 6, 9, 11, 17, 19, 29, 34, 36, 46},
    {7, 13, 14, 20, 22, 33, 41, 43, 47, 49},
    {2, 11, 17, 19, 21, 29, 30, 36, 42, 45},
    {1, 6, 9, 11, 12, 22, 23, 29, 39, 46},
    {5, 9, 11, 12, 17, 19, 23, 29, 39, 46},
    {3, 13, 14, 15, 20, 35, 41, 43, 44, 48, 49},
    {15, 16, 21, 25, 27, 36, 38, 40, 45, 50},
    {1, 5, 6, 11, 12, 23, 29, 37, 39, 46},
    {18, 24, 25, 27, 28, 32, 33, 42, 47, 50},
    {4, 6, 17, 19, 29, 30, 31, 36, 39, 42},
    {1, 5, 6, 9, 22, 23, 37, 39, 43, 46},
    {3, 7, 14, 22, 35, 41, 43, 44, 48, 49},
    {3, 7, 13, 20, 35, 41, 43, 44, 48, 49},
    {4, 8, 16, 21, 25, 36, 38, 40, 45, 50},
    {4, 8, 15, 21, 36, 38, 40, 42, 45, 50},
    {2, 4, 6, 9, 11, 16, 19, 29, 34, 36, 46},
    {8, 10, 24, 25, 27, 28, 32, 33, 40, 50},
    {4, 6, 11, 17, 29, 30, 31, 36, 39, 42},
    {3, 7, 13, 14, 26, 35, 41, 47, 48, 49},
    {4, 8, 15, 16, 36, 38, 40, 42, 45, 50},
    {3, 5, 7, 12, 13, 37, 39, 43, 44, 47, 49},
    {1, 5, 6, 9, 12, 22, 29, 37, 39, 46},
    {3, 10, 18, 26, 27, 28, 32, 33, 41, 47},
    {8, 10, 15, 18, 24, 27, 28, 32, 40, 50},
    {3, 7, 14, 20, 24, 28, 35, 41, 47, 49},
    {8, 10, 18, 24, 25, 28, 32, 33, 40, 50},
    {10, 18, 24, 25, 26, 27, 32, 33, 41, 47},
    {5, 6, 9, 11, 17, 19, 30, 31, 36, 39},
    {4, 11, 19, 29, 31, 33, 36, 39, 42, 47},
    {5, 11, 19, 29, 30, 33, 36, 39, 42, 43, 47},
    {10, 18, 24, 25, 26, 27, 28, 33, 41, 47},
    {3, 10, 18, 24, 28, 30, 31, 32, 41, 47},
    {2, 4, 6, 11, 17, 19, 21, 29, 36, 45},
    {3, 7, 13, 14, 20, 26, 41, 44, 48, 49},
    {4, 11, 19, 21, 29, 30, 31, 38, 42, 45},
    {1, 5, 6, 9, 12, 13, 22, 23, 39, 46},
    {4, 8, 15, 16, 21, 36, 40, 42, 45, 50},
    {5, 6, 11, 12, 19, 22, 29, 30, 31, 43},
    {8, 15, 16, 18, 21, 25, 27, 38, 45, 50},
    {3, 7, 14, 20, 24, 26, 33, 43, 47, 49},
    {4, 8, 11, 19, 21, 29, 30, 31, 33, 36},
    {3, 7, 13, 22, 31, 39, 41, 44, 47, 49},
    {3, 7, 13, 14, 20, 22, 35, 43, 48, 49},
    {4, 8, 15, 16, 21, 34, 36, 38, 40, 50},
    {1, 2, 5, 6, 9, 12, 17, 23, 29, 37},
    {3, 20, 24, 26, 28, 31, 33, 41, 43, 49},
    {3, 7, 13, 14, 20, 26, 35, 41, 44, 49},
    {3, 7, 13, 14, 20, 35, 41, 43, 44, 47},
    {8, 10, 15, 16, 18, 21, 25, 27, 38, 40}
];
