n = 50;
allowed = [
    {3, 16, 17, 36},
    {23, 24, 27, 28, 30},
    {1, 10, 16, 17},
    {39, 43, 49, 50},
    {8, 10, 15, 16, 17},
    {13, 31, 33, 39},
    {29, 37, 38, 45},
    {12, 29, 30, 35, 47},
    {19, 25, 32, 41},
    {3, 5, 16, 17},
    {13, 22, 34, 48},
    {8, 18, 22, 48},
    {6, 33, 40, 46},
    {4, 31, 39, 49},
    {5, 16, 17, 42},
    {1, 3, 10, 17, 18},
    {1, 3, 10, 16},
    {12, 21, 36, 40},
    {9, 12, 25, 32, 41},
    {25, 32, 41, 44},
    {13, 18, 40, 46},
    {11, 21, 34, 48},
    {24, 27, 30, 47},
    {2, 23, 27, 47},
    {9, 19, 32, 41},
    {6, 14, 31, 33, 34},
    {2, 23, 24, 28},
    {2, 23, 24, 27},
    {4, 24, 37, 38, 49},
    {23, 24, 35, 47},
    {6, 13, 33, 39},
    {20, 25, 41, 44},
    {6, 13, 31, 46},
    {11, 22, 26, 33},
    {8, 24, 30, 47},
    {1, 3, 10, 16, 20},
    {7, 29, 38, 50},
    {29, 37, 49, 50},
    {4, 14, 31, 43},
    {13, 21, 33, 37, 46},
    {9, 20, 25, 32},
    {7, 15, 37, 45},
    {4, 39, 40, 46, 48},
    {2, 20, 27, 32, 41},
    {7, 37, 38, 42},
    {13, 21, 33, 40},
    {21, 23, 24, 30, 35},
    {5, 11, 21, 22, 34},
    {4, 14, 29, 38},
    {4, 37, 38, 49}
];
