n = 50;
allowed = [
    {3, 4, 10, 16, 17, 36, 50},
    {23, 24, 27, 28, 30, 44, 47},
    {1, 5, 10, 15, 16, 17, 36},
    {14, 29, 38, 39, 43, 49, 50},
    {3, 10, 15, 16, 17, 20, 44},
    {13, 26, 31, 33, 39, 40, 46},
    {29, 37, 38, 42, 45, 49, 50},
    {12, 18, 23, 24, 30, 35, 47},
    {5, 19, 20, 25, 32, 41, 44},
    {3, 5, 16, 17, 20, 36, 44},
    {13, 22, 26, 33, 34, 46, 48},
    {8, 18, 21, 22, 30, 35, 48},
    {6, 21, 31, 33, 40, 43, 46},
    {4, 6, 29, 31, 39, 43, 49},
    {1, 3, 5, 16, 17, 37, 42},
    {1, 3, 5, 10, 15, 17, 36},
    {1, 3, 5, 10, 15, 16, 36},
    {12, 21, 22, 36, 40, 46, 48},
    {5, 9, 20, 25, 32, 41, 44},
    {5, 10, 25, 27, 32, 41, 44},
    {13, 18, 22, 40, 43, 46, 48},
    {11, 13, 21, 34, 40, 46, 48},
    {2, 24, 27, 28, 30, 36, 47},
    {2, 23, 27, 28, 30, 35, 47},
    {5, 9, 19, 20, 32, 41, 44},
    {6, 8, 13, 31, 33, 34, 40, 46},
    {2, 23, 24, 28, 30, 44, 47},
    {2, 23, 24, 27, 30, 44, 47},
    {4, 7, 14, 37, 38, 49, 50},
    {8, 23, 24, 27, 28, 35, 47},
    {6, 13, 14, 33, 39, 40, 43},
    {9, 19, 20, 25, 27, 41, 44},
    {6, 13, 26, 31, 39, 40, 46},
    {11, 13, 22, 26, 33, 46, 48},
    {8, 12, 23, 24, 28, 30, 37, 47},
    {1, 3, 10, 16, 17, 18, 23},
    {4, 7, 29, 38, 42, 49, 50},
    {4, 7, 14, 29, 37, 49, 50},
    {4, 6, 14, 31, 33, 43, 49},
    {6, 13, 21, 31, 33, 43, 46},
    {9, 19, 20, 25, 27, 32, 44},
    {7, 15, 17, 37, 38, 45, 50},
    {4, 6, 13, 31, 39, 40, 46},
    {2, 10, 20, 25, 27, 32, 41},
    {7, 15, 29, 37, 38, 42, 49},
    {6, 13, 21, 31, 33, 40, 43},
    {2, 23, 24, 27, 28, 30, 35},
    {11, 13, 21, 22, 34, 40, 46},
    {4, 14, 24, 29, 37, 38, 39, 50},
    {1, 4, 29, 37, 38, 43, 49}
];
