n = 30;
allowed = [
    {3, 4, 10, 23},
    {7, 10, 23},
    {1, 10, 23},
    {9, 11, 21},
    {9, 15, 17, 29},
    {8, 12, 29},
    {2, 10, 30},
    {6, 13, 29},
    {4, 5, 17},
    {2, 7, 30},
    {4, 28, 30},
    {6, 22, 24, 29},
    {8, 27, 29},
    {7, 16, 26},
    {18, 21, 25},
    {7, 14, 26},
    {5, 9, 15},
    {15, 21, 22, 25},
    {5, 8, 24, 29},
    {15, 18, 25},
    {4, 9, 15, 16},
    {6, 12, 29},
    {1, 3, 10},
    {8, 19, 29},
    {15, 18, 21},
    {7, 14, 16, 20},
    {13, 14, 26},
    {10, 11, 30},
    {6, 8, 12},
    {7, 9, 10, 28}
];
