n = 20;
allowed = [
    {3, 8, 9, 10, 12, 14, 16, 17, 18, 19},
    {3, 4, 6, 7, 8, 11, 12, 13, 15, 19},
    {1, 2, 6, 8, 9, 12, 14, 15, 17, 19},
    {2, 3, 5, 6, 7, 11, 12, 13, 15, 20},
    {1, 4, 7, 10, 12, 14, 15, 16, 18, 20},
    {1, 2, 3, 4, 7, 11, 12, 13, 14, 15},
    {2, 3, 4, 5, 6, 11, 12, 13, 15, 20},
    {1, 2, 3, 6, 9, 12, 14, 15, 17, 19},
    {1, 3, 8, 10, 12, 14, 16, 17, 18, 19},
    {1, 5, 7, 9, 12, 14, 16, 17, 18, 20},
    {1, 2, 3, 4, 6, 7, 12, 13, 15, 19},
    {1, 2, 3, 6, 7, 8, 13, 14, 15, 19},
    {1, 2, 3, 4, 6, 7, 11, 12, 15, 19},
    {1, 3, 8, 9, 10, 12, 16, 17, 18, 19},
    {1, 2, 3, 4, 6, 7, 11, 12, 13, 14},
    {1, 3, 5, 6, 9, 10, 12, 14, 17, 18, 20},
    {1, 3, 8, 9, 10, 12, 14, 16, 18, 19},
    {1, 5, 7, 9, 10, 12, 14, 16, 17, 20},
    {1, 2, 3, 6, 8, 9, 12, 14, 15, 17},
    {1, 4, 5, 7, 10, 12, 14, 15, 16, 18}
];
