n = 100;
allowed = [
    {3, 41, 91},
    {7, 10, 45, 81},
    {1, 41, 73, 91},
    {62, 66, 72, 88},
    {17, 80, 98},
    {8, 12, 29},
    {37, 45, 58},
    {29, 82, 90},
    {36, 51, 52},
    {2, 30, 37},
    {28, 52, 72, 93},
    {6, 22, 75},
    {32, 34, 76},
    {26, 50, 64},
    {18, 68, 89},
    {26, 32, 60, 81},
    {5, 80, 98},
    {15, 68, 89},
    {24, 46, 61},
    {56, 84, 99},
    {49, 60, 85, 88},
    {12, 59, 75},
    {39, 65, 91},
    {19, 46, 61},
    {68, 69, 89},
    {14, 35, 43},
    {17, 34, 55, 76},
    {30, 31, 90, 93},
    {6, 8, 54},
    {31, 79, 93},
    {28, 30, 93},
    {13, 34, 76, 84},
    {9, 49, 51, 62},
    {32, 55, 76},
    {14, 26, 54, 97},
    {9, 52, 80},
    {7, 36, 45, 58},
    {42, 63, 84},
    {11, 23, 41, 65},
    {43, 77, 95},
    {1, 3, 23},
    {38, 63, 84},
    {26, 77, 94},
    {30, 67, 72, 88},
    {7, 37, 58},
    {15, 19, 24, 61},
    {59, 75, 87},
    {54, 92, 97},
    {21, 73, 85},
    {14, 58, 64},
    {9, 62, 88},
    {9, 36, 96, 98},
    {70, 71, 86},
    {48, 92, 97},
    {27, 34, 76},
    {20, 83, 99},
    {56, 83, 99},
    {7, 45, 60},
    {22, 47, 75},
    {7, 58, 74},
    {19, 24, 100},
    {4, 72, 88},
    {38, 42, 82, 84},
    {14, 26, 50},
    {23, 39, 91},
    {6, 29, 100},
    {44, 72, 73},
    {18, 25, 89},
    {25, 57, 68},
    {26, 42, 53, 63},
    {78, 86, 87},
    {4, 62, 88},
    {43, 77, 94},
    {37, 60, 79},
    {12, 22, 39, 59},
    {27, 34, 55},
    {40, 43, 95},
    {71, 86, 87},
    {30, 37, 74, 75},
    {5, 17, 98},
    {16, 58, 60},
    {8, 13, 90},
    {56, 57, 65, 99},
    {38, 42, 63},
    {21, 49, 88},
    {53, 71, 78},
    {71, 78, 86},
    {51, 62, 72},
    {15, 18, 68},
    {8, 13, 29, 82},
    {1, 23, 65},
    {54, 67, 95, 97},
    {28, 30, 31},
    {43, 73, 77},
    {40, 77, 97},
    {10, 40, 73, 95},
    {35, 92, 95},
    {5, 17, 33, 80},
    {20, 56, 83},
    {19, 61, 66}
];
