n = 20;
allowed = [
    {6, 8, 13, 17, 18},
    {3, 11, 12, 16, 17},
    {1, 10, 16, 17, 19},
    {5, 8, 15, 18, 20},
    {4, 8, 15, 18, 20},
    {1, 5, 8, 13, 18},
    {9, 10, 14, 15, 20},
    {1, 5, 6, 13, 18},
    {7, 10, 14, 19, 20},
    {3, 12, 16, 19, 20},
    {2, 9, 12, 16, 17, 19},
    {2, 10, 11, 16, 19},
    {1, 5, 6, 8, 18},
    {4, 7, 9, 15, 20},
    {4, 5, 7, 14, 20},
    {2, 3, 10, 12, 19},
    {1, 2, 3, 10, 16},
    {1, 5, 6, 8, 13},
    {2, 3, 10, 12, 16},
    {3, 4, 7, 14, 15}
];
