n = 100;
allowed = [
    {55, 60, 81, 98},
    {14, 18, 19, 61},
    {16, 37, 39, 46},
    {20, 34, 52, 58},
    {27, 63, 73, 88},
    {60, 67, 81, 98},
    {16, 33, 96, 99},
    {20, 43, 64, 97},
    {13, 20, 31, 64},
    {9, 36, 49, 74},
    {21, 26, 72, 84},
    {2, 19, 38, 57, 94},
    {8, 9, 31, 64},
    {18, 51, 78, 91},
    {50, 68, 75, 76},
    {7, 39, 96, 99},
    {24, 28, 37, 40, 93},
    {2, 14, 19, 61},
    {2, 12, 18, 61},
    {4, 8, 43, 64},
    {11, 26, 29, 72},
    {67, 81, 83, 92},
    {14, 48, 51, 78},
    {32, 45, 70, 76, 100},
    {17, 53, 71, 75, 80},
    {11, 21, 72, 79},
    {3, 5, 63, 73, 88},
    {17, 37, 40, 46},
    {11, 21, 22, 32, 38},
    {51, 53, 69, 71, 73},
    {9, 13, 57, 64, 74},
    {1, 21, 29, 55},
    {7, 45, 84, 96, 99},
    {4, 52, 85, 87},
    {39, 49, 82, 90},
    {10, 20, 66, 85, 87},
    {3, 17, 28, 46},
    {1, 29, 85, 87},
    {3, 7, 16, 90},
    {17, 28, 62, 93},
    {42, 66, 70, 100},
    {41, 66, 70, 100},
    {8, 56, 64, 97},
    {65, 78, 91, 95},
    {24, 70, 76, 100},
    {3, 17, 28, 37},
    {61, 69, 83, 92},
    {23, 44, 78, 86},
    {10, 35, 74, 82},
    {15, 68, 75, 76},
    {14, 23, 78, 91},
    {4, 34, 58, 87},
    {71, 73, 80, 88},
    {33, 82, 89, 96, 99},
    {1, 60, 81, 98},
    {43, 58, 59, 97},
    {12, 61, 89, 94},
    {4, 56, 59, 97},
    {43, 46, 56, 58, 97},
    {1, 6, 81, 98},
    {2, 18, 47, 92},
    {40, 79, 93, 95},
    {5, 6, 27, 88},
    {8, 13, 20, 43},
    {44, 79, 91, 95},
    {25, 41, 42, 59, 70},
    {6, 55, 60, 73, 81},
    {15, 50, 52, 75, 76},
    {30, 47, 83, 92},
    {41, 42, 77, 100},
    {30, 53, 73, 88},
    {11, 21, 26, 79},
    {5, 30, 71, 88},
    {9, 10, 31, 49},
    {25, 68, 76, 80},
    {15, 50, 68, 75},
    {60, 70, 98, 100},
    {14, 23, 44, 48, 91},
    {26, 62, 72, 95},
    {25, 53, 75, 88},
    {1, 6, 55, 67},
    {7, 35, 39, 99},
    {22, 47, 69, 92},
    {11, 33, 93, 96},
    {34, 38, 41, 52, 87},
    {5, 28, 37, 40, 48},
    {34, 38, 52, 85},
    {27, 53, 63, 71},
    {30, 47, 57, 69, 85},
    {16, 35, 39, 82},
    {14, 44, 65, 78},
    {47, 54, 61, 69, 83},
    {33, 40, 62, 84},
    {2, 12, 19, 57},
    {26, 62, 65, 79},
    {7, 33, 84, 99},
    {8, 43, 56, 59},
    {1, 6, 44, 55, 60},
    {7, 16, 33, 96},
    {36, 45, 63, 70, 77}
];
