n = 50;
allowed = [
    {7, 20, 29, 31, 43, 47, 48},
    {12, 17, 18, 35, 42, 49, 50},
    {6, 13, 21, 26, 33, 39, 49},
    {8, 19, 22, 30, 36, 41, 46},
    {7, 11, 12, 14, 20, 40, 43},
    {3, 13, 21, 25, 26, 33, 39, 49},
    {1, 5, 14, 29, 40, 43, 46},
    {19, 22, 23, 30, 31, 34, 41},
    {13, 15, 16, 25, 27, 47, 48},
    {11, 24, 28, 32, 37, 42, 44},
    {5, 10, 14, 24, 28, 32, 40},
    {5, 10, 11, 17, 28, 38, 42},
    {3, 6, 9, 16, 21, 27, 39},
    {5, 10, 11, 24, 32, 37, 40},
    {9, 16, 23, 31, 34, 45, 47},
    {9, 13, 15, 25, 29, 47, 48},
    {2, 12, 18, 35, 38, 42, 50},
    {2, 12, 17, 35, 42, 44, 50},
    {4, 8, 22, 30, 36, 41, 46},
    {1, 5, 12, 29, 36, 38, 43, 48},
    {3, 6, 13, 26, 33, 39, 49},
    {4, 8, 19, 30, 31, 36, 41, 46},
    {8, 15, 30, 31, 34, 41, 45},
    {10, 11, 14, 28, 32, 37, 44},
    {9, 13, 15, 16, 27, 45, 47},
    {3, 6, 21, 33, 38, 39, 49},
    {6, 9, 13, 16, 21, 25, 39, 40},
    {10, 11, 12, 24, 32, 42, 44},
    {1, 5, 16, 20, 43, 47, 48},
    {8, 15, 23, 31, 34, 41, 45},
    {2, 8, 15, 23, 30, 34, 45, 47},
    {10, 11, 14, 24, 28, 37, 44},
    {3, 6, 21, 26, 38, 39, 49},
    {8, 23, 30, 31, 41, 45, 47},
    {2, 10, 15, 17, 18, 28, 42, 44},
    {4, 8, 19, 22, 30, 41, 46},
    {10, 11, 14, 24, 28, 32, 35, 44},
    {12, 17, 20, 26, 33, 49, 50},
    {3, 6, 13, 21, 26, 33, 49},
    {1, 5, 7, 11, 14, 43, 46},
    {4, 8, 19, 22, 23, 30, 34},
    {10, 12, 17, 18, 28, 35, 44},
    {1, 5, 7, 20, 29, 40, 48},
    {10, 17, 24, 28, 32, 35, 42},
    {8, 15, 23, 30, 31, 34, 41},
    {4, 7, 8, 22, 34, 41, 43},
    {1, 15, 16, 29, 31, 34, 48},
    {1, 16, 20, 29, 31, 43, 47},
    {2, 3, 21, 26, 33, 38, 50},
    {2, 17, 18, 26, 33, 38, 49}
];
