n = 20;
allowed = [
    {2, 4, 5, 6, 8, 10, 11, 12, 16, 19},
    {1, 3, 4, 6, 8, 10, 11, 12, 15, 16},
    {5, 6, 7, 9, 11, 13, 15, 16, 17, 18},
    {1, 2, 3, 6, 8, 10, 11, 12, 16, 19},
    {7, 8, 9, 10, 11, 12, 14, 17, 19, 20},
    {1, 2, 3, 4, 11, 12, 13, 15, 16, 18},
    {3, 9, 11, 13, 14, 15, 16, 17, 18, 20},
    {1, 2, 3, 4, 5, 10, 11, 12, 14, 16, 19},
    {3, 5, 7, 11, 13, 14, 15, 16, 17, 20},
    {1, 2, 3, 4, 5, 8, 9, 11, 12, 19},
    {2, 3, 6, 7, 9, 12, 13, 15, 16, 18},
    {1, 2, 3, 4, 5, 8, 10, 11, 16, 19},
    {3, 6, 7, 9, 11, 14, 15, 16, 17, 18},
    {3, 5, 7, 9, 13, 15, 16, 17, 18, 20},
    {2, 3, 6, 7, 9, 11, 13, 16, 17, 18},
    {2, 3, 6, 7, 9, 11, 12, 13, 15, 18},
    {3, 5, 7, 9, 11, 13, 14, 15, 16, 20},
    {3, 6, 7, 9, 11, 13, 14, 15, 16, 17},
    {1, 2, 4, 5, 8, 9, 10, 11, 12, 20},
    {3, 5, 7, 9, 11, 13, 14, 16, 17, 19}
];
