n = 50;
allowed = [
    {2, 4, 24, 37, 45, 50},
    {1, 17, 24, 37, 50},
    {8, 11, 39, 44, 46},
    {1, 35, 37, 47, 48},
    {20, 33, 36, 43, 45},
    {7, 14, 21, 30, 49},
    {14, 21, 30, 32, 49},
    {2, 3, 11, 28, 31, 46},
    {10, 15, 16, 25, 26},
    {2, 9, 17, 18, 22, 25},
    {3, 8, 28, 39, 44},
    {7, 14, 30, 32, 45, 49},
    {5, 20, 33, 36, 43},
    {7, 21, 30, 32, 49},
    {9, 16, 25, 26, 29},
    {9, 15, 25, 26, 29},
    {2, 10, 18, 37, 48},
    {9, 17, 25, 38, 42, 48},
    {8, 11, 28, 31, 38, 42},
    {5, 13, 33, 43, 45},
    {6, 7, 13, 14, 30, 49},
    {23, 28, 31, 40, 46},
    {22, 24, 40, 46, 50},
    {1, 2, 17, 37, 50},
    {9, 15, 16, 26, 35, 42},
    {9, 15, 16, 25, 29},
    {12, 15, 16, 29, 34, 41},
    {3, 8, 11, 31, 46},
    {15, 16, 27, 34, 41},
    {6, 7, 14, 21, 32},
    {8, 22, 28, 40, 46},
    {7, 12, 14, 21, 30},
    {5, 13, 20, 36, 43},
    {15, 16, 27, 29, 41},
    {1, 4, 37, 47, 48},
    {5, 13, 33, 39, 43, 46},
    {2, 17, 24, 35, 48},
    {3, 11, 19, 28, 31},
    {3, 8, 11, 41, 44, 46},
    {7, 22, 28, 31, 49},
    {15, 16, 27, 29, 34},
    {9, 18, 25, 26, 48},
    {5, 13, 20, 33, 36},
    {3, 8, 11, 39, 46},
    {1, 2, 5, 20, 24},
    {3, 8, 11, 28, 39},
    {4, 17, 19, 35, 37, 48},
    {17, 18, 35, 37, 42},
    {6, 7, 14, 21, 40},
    {1, 2, 10, 23, 24}
];
