n = 100;
allowed = [
    {19, 35, 42, 44, 46, 56, 57, 76, 77, 79},
    {23, 25, 37, 59, 64, 68, 71, 83, 85, 95},
    {42, 48, 55, 66, 73, 74, 77, 86, 88, 94},
    {5, 6, 9, 20, 30, 39, 69, 92, 97, 100},
    {4, 6, 30, 40, 65, 70, 72, 82, 97, 100},
    {4, 5, 20, 30, 31, 40, 65, 70, 72, 97},
    {28, 34, 38, 40, 45, 61, 82, 84, 96, 100},
    {10, 18, 33, 49, 52, 54, 58, 71, 90, 95},
    {4, 5, 20, 30, 34, 36, 39, 74, 92, 97, 100},
    {18, 24, 49, 52, 58, 61, 89, 90, 93, 99},
    {8, 33, 37, 66, 71, 76, 77, 80, 86, 90},
    {14, 15, 27, 32, 47, 62, 63, 68, 81, 98},
    {10, 29, 33, 50, 55, 60, 75, 80, 93, 99},
    {12, 15, 27, 32, 63, 68, 81, 83, 87, 98},
    {12, 14, 25, 32, 51, 53, 81, 83, 87, 98},
    {1, 17, 19, 26, 35, 42, 46, 47, 56, 57},
    {1, 16, 19, 26, 35, 42, 46, 48, 56, 77},
    {8, 10, 49, 52, 54, 58, 89, 90, 93, 99},
    {1, 16, 17, 26, 35, 42, 44, 46, 56, 57},
    {4, 5, 6, 30, 39, 41, 69, 70, 72, 97},
    {15, 22, 41, 43, 51, 53, 69, 78, 87, 91},
    {21, 41, 43, 51, 53, 67, 69, 78, 87, 91},
    {2, 8, 25, 54, 59, 64, 71, 83, 85, 86, 95},
    {10, 18, 38, 49, 52, 61, 84, 89, 93, 99},
    {2, 15, 23, 59, 64, 65, 70, 72, 83, 95},
    {1, 16, 17, 19, 35, 42, 46, 47, 56, 57, 62},
    {12, 14, 15, 53, 63, 67, 81, 87, 91, 98},
    {7, 24, 34, 38, 40, 45, 61, 82, 84, 96},
    {10, 13, 18, 33, 50, 60, 75, 80, 93, 99},
    {4, 5, 6, 9, 20, 36, 39, 92, 97, 100},
    {5, 6, 49, 54, 58, 61, 65, 70, 72, 89},
    {12, 14, 15, 44, 62, 68, 79, 81, 83, 98},
    {8, 10, 11, 18, 54, 71, 75, 80, 86, 90},
    {7, 9, 28, 36, 40, 45, 82, 92, 96, 100},
    {1, 19, 37, 42, 44, 46, 56, 57, 76, 79},
    {4, 9, 30, 34, 39, 40, 82, 92, 96, 100},
    {2, 11, 23, 44, 57, 71, 76, 79, 85, 95},
    {7, 24, 28, 45, 52, 61, 82, 84, 93, 99},
    {4, 5, 9, 20, 30, 36, 69, 92, 97, 100},
    {5, 6, 7, 31, 34, 82, 89, 96, 97, 100},
    {4, 6, 20, 21, 30, 39, 69, 72, 78, 97},
    {1, 19, 35, 46, 48, 56, 66, 76, 77, 94},
    {15, 21, 22, 41, 51, 53, 78, 81, 87, 91},
    {1, 2, 19, 35, 37, 57, 68, 76, 79, 85},
    {7, 24, 28, 34, 38, 61, 82, 84, 93, 96},
    {1, 17, 19, 35, 42, 48, 56, 66, 77, 94},
    {12, 14, 16, 26, 32, 44, 62, 68, 79, 98},
    {1, 3, 17, 28, 42, 46, 56, 66, 74, 77, 94},
    {10, 18, 24, 52, 54, 58, 61, 89, 93, 99},
    {10, 13, 29, 33, 55, 60, 75, 80, 93, 99},
    {15, 21, 22, 41, 43, 53, 78, 81, 87, 91},
    {10, 18, 24, 49, 58, 61, 69, 89, 90, 93, 99},
    {21, 22, 27, 43, 51, 63, 78, 81, 87, 91},
    {8, 10, 18, 31, 49, 58, 59, 71, 89, 90},
    {3, 11, 33, 47, 60, 66, 73, 74, 80, 86, 88},
    {1, 16, 17, 19, 26, 35, 42, 46, 48, 77},
    {1, 19, 35, 37, 42, 44, 68, 76, 79, 85},
    {8, 10, 18, 31, 49, 52, 54, 71, 89, 90},
    {2, 8, 23, 25, 54, 58, 64, 65, 71, 95},
    {13, 29, 33, 50, 55, 73, 75, 80, 86, 88},
    {10, 18, 24, 49, 52, 58, 84, 89, 93, 99},
    {12, 14, 27, 32, 47, 50, 63, 68, 79, 81, 98},
    {12, 14, 15, 27, 53, 67, 81, 87, 91, 98},
    {2, 6, 23, 25, 59, 65, 70, 72, 83, 95},
    {5, 6, 31, 54, 58, 64, 70, 72, 89, 97},
    {3, 11, 42, 48, 74, 76, 77, 86, 88, 94},
    {21, 22, 27, 43, 51, 53, 63, 78, 81, 87, 91},
    {2, 12, 14, 32, 44, 57, 79, 83, 85, 98},
    {4, 9, 20, 21, 30, 39, 41, 67, 78, 92, 97},
    {5, 6, 20, 25, 31, 59, 64, 65, 72, 97},
    {8, 11, 18, 23, 33, 54, 58, 59, 90, 95},
    {4, 5, 6, 20, 25, 31, 64, 65, 70, 97},
    {3, 55, 60, 66, 74, 77, 80, 86, 88, 94},
    {3, 11, 48, 55, 66, 73, 77, 86, 88, 94},
    {10, 13, 18, 29, 33, 50, 52, 80, 93, 99},
    {1, 11, 35, 37, 44, 57, 66, 77, 79, 85},
    {3, 42, 46, 48, 66, 74, 76, 86, 88, 94},
    {20, 21, 22, 41, 43, 51, 53, 69, 87, 91},
    {1, 2, 32, 35, 37, 44, 57, 68, 76, 85},
    {8, 11, 13, 29, 33, 55, 71, 75, 86, 90},
    {12, 14, 15, 27, 51, 53, 63, 87, 91, 98},
    {5, 7, 28, 34, 40, 45, 61, 96, 97, 100},
    {2, 15, 23, 25, 32, 59, 64, 68, 85, 95},
    {7, 24, 28, 38, 45, 52, 61, 89, 93, 99},
    {2, 23, 37, 44, 57, 68, 76, 79, 83, 95},
    {11, 33, 37, 55, 66, 71, 74, 77, 80, 88},
    {14, 15, 21, 43, 49, 51, 53, 63, 81, 91, 98},
    {3, 11, 55, 66, 73, 74, 77, 80, 86, 94},
    {10, 18, 24, 31, 49, 52, 58, 61, 93, 99},
    {8, 10, 18, 33, 49, 52, 54, 58, 71, 80},
    {21, 22, 27, 43, 51, 53, 63, 67, 81, 87},
    {4, 5, 9, 20, 30, 34, 36, 39, 97, 100},
    {10, 18, 24, 38, 49, 52, 61, 84, 89, 99},
    {3, 42, 46, 48, 66, 73, 74, 77, 86, 88},
    {2, 8, 23, 37, 54, 59, 64, 71, 83, 85},
    {7, 28, 29, 34, 36, 38, 40, 45, 82, 84, 100},
    {4, 5, 6, 20, 30, 31, 40, 65, 70, 72},
    {12, 14, 15, 27, 32, 62, 63, 68, 81, 87},
    {10, 18, 24, 49, 52, 61, 75, 84, 89, 93},
    {4, 5, 9, 30, 34, 36, 40, 82, 92, 96}
];
