n = 30;
allowed = [
    {3, 16, 17, 18},
    {24, 27, 28},
    {1, 16, 17},
    {6, 14, 29},
    {10, 16, 17},
    {7, 13, 14, 26},
    {4, 14, 28, 29},
    {12, 15, 18, 30},
    {19, 20, 25},
    {3, 16, 17, 29},
    {13, 22, 26},
    {8, 18, 22},
    {6, 21, 26},
    {4, 6, 29},
    {3, 5, 16, 17},
    {1, 3, 17},
    {1, 3, 16},
    {12, 21, 22},
    {9, 20, 25},
    {5, 10, 25},
    {13, 18, 22, 25},
    {11, 13, 21},
    {24, 27, 30},
    {2, 23, 27},
    {9, 19, 20},
    {6, 11, 13},
    {2, 24, 28},
    {2, 24, 27},
    {4, 7, 14},
    {8, 23, 24, 28}
];
