n = 50;
allowed = [
    {42, 44, 46},
    {11, 27, 32, 34},
    {4, 28, 47},
    {3, 28, 47},
    {6, 23, 35},
    {23, 26, 35},
    {17, 25, 29},
    {12, 19, 20},
    {4, 33, 36, 47},
    {14, 38, 40},
    {12, 19, 34},
    {11, 19, 30, 37},
    {19, 20, 37},
    {10, 18, 36, 38},
    {21, 39, 41},
    {26, 43, 49},
    {7, 25, 31, 45},
    {3, 23, 28, 40},
    {11, 12, 34},
    {12, 13, 37},
    {15, 41, 43},
    {30, 46, 48},
    {6, 18, 45},
    {25, 27, 42},
    {7, 24, 29},
    {6, 16, 49},
    {24, 25, 50},
    {3, 4, 45},
    {3, 7, 25},
    {22, 38, 46, 48},
    {5, 8, 20},
    {2, 11, 34},
    {4, 9, 47},
    {11, 19, 32, 37},
    {5, 6, 23},
    {8, 15, 39, 44},
    {11, 13, 19},
    {10, 14, 40},
    {1, 15, 44},
    {10, 14, 22, 38},
    {15, 21, 43},
    {1, 24, 46},
    {21, 41, 49},
    {1, 13, 15, 39},
    {7, 17, 28},
    {1, 22, 42},
    {3, 4, 33},
    {22, 30, 46},
    {16, 26, 43},
    {9, 27, 29}
];
