n = 50;
allowed = [
    {3, 16, 17},
    {24, 27, 28},
    {1, 16, 17, 19},
    {39, 49, 50},
    {4, 10, 16, 17},
    {13, 31, 33},
    {37, 38, 45},
    {12, 30, 35},
    {19, 25, 41, 48},
    {3, 16, 17},
    {22, 34, 48},
    {8, 18, 48},
    {33, 40, 46},
    {28, 31, 39, 49},
    {5, 17, 42},
    {1, 3, 17},
    {1, 3, 16},
    {12, 21, 36},
    {9, 25, 41},
    {32, 41, 42, 44},
    {13, 40, 46},
    {11, 21, 24, 48},
    {24, 30, 47},
    {23, 27, 47},
    {9, 32, 41},
    {6, 31, 33},
    {2, 11, 24, 28},
    {2, 24, 27},
    {26, 37, 38, 49},
    {23, 35, 47},
    {6, 33, 39},
    {20, 25, 41},
    {6, 13, 31},
    {11, 26, 33, 44},
    {8, 30, 47},
    {1, 3, 10},
    {7, 38, 50},
    {29, 37, 49},
    {14, 31, 43},
    {13, 33, 46},
    {9, 25, 32},
    {7, 15, 37},
    {4, 39, 40, 45},
    {20, 27, 32},
    {7, 22, 37, 42},
    {7, 13, 33, 40},
    {23, 24, 30},
    {11, 21, 22},
    {4, 29, 38},
    {4, 37, 38, 43}
];
