n = 50;
allowed = [
    {14, 17, 23, 25, 32, 40, 41},
    {6, 11, 13, 24, 31, 37, 49},
    {12, 19, 40, 42, 46, 47, 50},
    {6, 11, 15, 24, 33, 37, 48},
    {20, 28, 30, 35, 36, 41, 44, 45},
    {4, 11, 15, 24, 31, 33, 37},
    {15, 26, 29, 33, 35, 37, 43},
    {1, 3, 14, 19, 25, 47, 50},
    {1, 14, 17, 22, 23, 25, 30, 32},
    {16, 18, 21, 27, 30, 34, 38},
    {2, 6, 13, 24, 39, 48, 49},
    {3, 15, 29, 37, 40, 42, 46},
    {2, 6, 11, 24, 31, 39, 49},
    {1, 9, 17, 22, 23, 25, 40},
    {4, 6, 7, 24, 26, 33, 37},
    {10, 18, 21, 27, 32, 34, 38},
    {1, 9, 14, 22, 23, 25, 32},
    {10, 16, 21, 27, 30, 34, 38},
    {1, 3, 8, 14, 20, 25, 47, 50},
    {5, 28, 30, 35, 36, 44, 45},
    {10, 16, 18, 27, 28, 30, 34},
    {9, 14, 17, 23, 25, 27, 32},
    {1, 14, 22, 27, 32, 36, 41},
    {2, 6, 11, 13, 31, 37, 49},
    {1, 9, 14, 17, 22, 32, 50},
    {7, 15, 29, 33, 35, 37, 43},
    {18, 22, 23, 30, 32, 36, 41},
    {18, 21, 27, 30, 34, 35, 36},
    {1, 7, 12, 26, 35, 40, 41},
    {10, 18, 21, 27, 28, 34, 36, 40},
    {2, 6, 11, 13, 24, 37, 49},
    {9, 14, 17, 22, 23, 27, 41},
    {4, 6, 7, 15, 26, 37, 43},
    {10, 16, 18, 21, 28, 30, 38},
    {7, 26, 28, 29, 36, 41, 43},
    {18, 23, 27, 28, 30, 35, 41},
    {4, 6, 15, 24, 26, 31, 33},
    {10, 16, 18, 21, 27, 32, 34},
    {2, 4, 11, 13, 24, 48, 49},
    {1, 3, 12, 14, 23, 29, 41},
    {1, 14, 23, 27, 32, 36, 40, 43},
    {2, 3, 12, 19, 31, 46, 50},
    {7, 15, 26, 33, 35, 44, 45},
    {5, 7, 20, 26, 35, 43, 45},
    {5, 7, 20, 28, 35, 43, 44},
    {2, 3, 12, 29, 31, 37, 42},
    {1, 3, 8, 14, 19, 25, 50},
    {4, 6, 11, 13, 24, 39, 49},
    {2, 11, 13, 24, 31, 39, 47, 48},
    {1, 3, 8, 14, 19, 25, 47}
];
