n = 50;
allowed = [
    {22, 39, 42, 44, 46},
    {11, 19, 32, 34, 41},
    {4, 28, 29, 30, 33, 47},
    {3, 9, 28, 33, 47},
    {6, 23, 26, 31, 35},
    {16, 23, 26, 35, 45},
    {17, 24, 25, 29, 45},
    {11, 12, 19, 20, 37},
    {3, 4, 33, 47, 50},
    {14, 15, 22, 38, 40, 46},
    {2, 12, 19, 34, 37},
    {11, 13, 19, 34, 37},
    {11, 12, 19, 20, 37},
    {1, 10, 36, 38, 44},
    {21, 32, 36, 39, 41, 44},
    {6, 17, 26, 43, 49},
    {7, 24, 25, 29, 45},
    {3, 4, 23, 28, 45},
    {11, 12, 13, 34, 37},
    {8, 12, 13, 19, 33, 37},
    {2, 15, 39, 41, 43},
    {1, 30, 42, 46, 48},
    {6, 18, 28, 35, 45},
    {7, 25, 27, 29, 42},
    {7, 17, 24, 27, 29},
    {6, 16, 35, 43, 49},
    {24, 25, 29, 42, 50},
    {3, 4, 29, 45, 47},
    {3, 7, 25, 27, 28},
    {22, 27, 42, 46, 48},
    {5, 8, 12, 20, 26},
    {2, 11, 19, 22, 34, 37},
    {3, 4, 9, 28, 47},
    {2, 11, 12, 19, 37},
    {5, 6, 16, 23, 26},
    {14, 15, 21, 39, 44},
    {11, 12, 13, 19, 34, 35},
    {1, 10, 14, 40, 46},
    {1, 14, 15, 36, 44},
    {10, 14, 22, 38, 46},
    {2, 15, 21, 43, 49},
    {1, 22, 24, 27, 30, 46},
    {15, 16, 21, 41, 49},
    {1, 14, 15, 36, 39},
    {7, 17, 23, 28, 29},
    {1, 22, 30, 42, 48},
    {3, 4, 9, 28, 33},
    {22, 27, 30, 42, 46},
    {16, 21, 26, 41, 43},
    {9, 24, 27, 29, 38, 48}
];
