n = 50;
allowed = [
    {14, 22, 24, 30, 38, 39, 42, 44, 46, 48},
    {6, 11, 12, 13, 15, 19, 21, 32, 34, 37, 41},
    {4, 7, 9, 18, 25, 28, 29, 33, 45, 47},
    {3, 7, 9, 18, 28, 29, 33, 45, 47, 50},
    {6, 16, 17, 18, 23, 26, 31, 35, 45, 49},
    {5, 7, 16, 17, 18, 23, 26, 28, 35, 45},
    {3, 4, 17, 24, 25, 27, 28, 29, 42, 45},
    {11, 12, 13, 19, 20, 31, 34, 37, 41, 43},
    {3, 4, 24, 25, 27, 28, 29, 33, 47, 50},
    {1, 14, 22, 30, 38, 40, 42, 44, 46, 48},
    {2, 8, 12, 13, 19, 20, 32, 34, 37, 41},
    {2, 8, 11, 13, 19, 20, 32, 34, 37, 41},
    {2, 8, 11, 12, 19, 20, 32, 34, 37, 41},
    {1, 10, 22, 36, 38, 39, 40, 42, 44, 46},
    {1, 2, 14, 21, 36, 39, 41, 43, 44, 49},
    {6, 7, 17, 23, 26, 35, 41, 43, 45, 49},
    {7, 16, 24, 25, 27, 28, 29, 42, 45, 49},
    {3, 4, 6, 7, 23, 28, 29, 33, 45, 47},
    {2, 8, 11, 12, 13, 20, 32, 34, 37, 41},
    {2, 8, 11, 12, 13, 19, 31, 32, 34, 37},
    {2, 11, 15, 32, 36, 39, 41, 43, 44, 49},
    {1, 10, 14, 24, 27, 30, 38, 42, 46, 48},
    {3, 5, 6, 16, 17, 18, 26, 28, 35, 45},
    {1, 7, 22, 25, 27, 29, 30, 42, 46, 48},
    {1, 7, 17, 24, 27, 28, 29, 42, 45, 50},
    {5, 6, 7, 16, 17, 23, 35, 43, 45, 49},
    {7, 22, 24, 25, 29, 30, 42, 46, 48, 50},
    {3, 4, 7, 18, 23, 25, 29, 33, 45, 47},
    {3, 4, 7, 24, 25, 27, 28, 45, 47, 50},
    {1, 10, 22, 24, 27, 38, 42, 46, 48, 50},
    {5, 8, 12, 13, 16, 20, 22, 26, 35, 37, 43},
    {2, 11, 12, 13, 15, 19, 21, 34, 37, 41},
    {3, 4, 9, 18, 19, 27, 28, 29, 45, 47, 50},
    {2, 8, 11, 12, 13, 19, 20, 32, 37, 41},
    {5, 6, 16, 17, 18, 23, 26, 31, 45, 49},
    {1, 2, 10, 14, 15, 21, 38, 39, 41, 44},
    {2, 8, 11, 12, 13, 19, 20, 32, 34, 41},
    {1, 10, 14, 22, 36, 39, 40, 42, 44, 46},
    {1, 14, 15, 21, 36, 38, 40, 41, 42, 44, 46},
    {1, 10, 14, 20, 22, 30, 36, 38, 44, 46, 48},
    {2, 11, 12, 15, 19, 21, 34, 39, 43, 49},
    {1, 22, 24, 25, 27, 30, 39, 44, 46, 48},
    {8, 15, 16, 17, 21, 26, 39, 41, 44, 49},
    {1, 14, 15, 21, 22, 36, 38, 39, 42, 46},
    {3, 4, 6, 7, 17, 18, 23, 25, 28, 29},
    {1, 10, 14, 22, 24, 27, 30, 38, 42, 48},
    {3, 4, 9, 18, 27, 28, 29, 33, 45, 50},
    {1, 10, 22, 24, 27, 30, 38, 42, 46, 50},
    {7, 15, 16, 17, 21, 26, 39, 41, 43, 44},
    {4, 9, 24, 25, 27, 29, 30, 42, 47, 48}
];
