n = 50;
allowed = [
    {2, 7, 23, 29, 34, 36, 45, 46, 48, 49},
    {1, 6, 15, 16, 18, 27, 29, 45, 46, 48},
    {23, 25, 26, 32, 34, 36, 37, 38, 41, 49},
    {9, 12, 17, 19, 20, 35, 39, 40, 42, 44},
    {6, 10, 13, 15, 18, 24, 28, 30, 33, 50},
    {2, 15, 16, 18, 21, 22, 27, 29, 30, 46},
    {1, 2, 23, 29, 34, 36, 41, 45, 48, 49},
    {11, 14, 25, 26, 31, 32, 35, 38, 43, 44, 47},
    {4, 12, 17, 19, 20, 35, 39, 40, 42, 44},
    {5, 6, 13, 15, 18, 24, 28, 30, 33, 50},
    {8, 14, 21, 25, 26, 31, 32, 36, 37, 38},
    {4, 9, 14, 17, 20, 35, 39, 40, 42, 44},
    {5, 6, 10, 15, 18, 24, 28, 30, 33, 50},
    {9, 11, 12, 21, 22, 31, 32, 35, 40, 44},
    {2, 6, 16, 18, 21, 27, 29, 30, 45, 46},
    {1, 2, 6, 15, 18, 29, 30, 45, 46, 48},
    {4, 9, 12, 19, 20, 35, 39, 40, 42, 44},
    {2, 6, 15, 16, 21, 22, 27, 29, 30, 46},
    {4, 9, 12, 14, 17, 20, 22, 35, 42, 50},
    {4, 9, 12, 17, 19, 35, 39, 40, 42, 44},
    {6, 14, 15, 18, 22, 26, 27, 29, 30, 32},
    {5, 6, 14, 15, 18, 21, 27, 30, 35, 50},
    {1, 3, 7, 26, 31, 34, 36, 37, 41, 45, 49},
    {5, 6, 10, 13, 15, 16, 28, 30, 33, 50},
    {3, 8, 11, 23, 26, 31, 32, 37, 38, 41},
    {3, 11, 21, 23, 25, 27, 31, 32, 36, 37},
    {2, 6, 15, 18, 21, 22, 29, 30, 45, 46},
    {5, 10, 13, 18, 19, 22, 24, 30, 33, 50},
    {1, 2, 6, 15, 16, 18, 27, 45, 46, 48},
    {5, 6, 10, 15, 18, 21, 22, 27, 29, 50},
    {8, 11, 14, 25, 26, 32, 38, 43, 44, 47},
    {3, 11, 21, 23, 25, 26, 27, 31, 36, 37},
    {5, 6, 10, 13, 15, 18, 24, 28, 30, 50},
    {1, 2, 3, 7, 23, 36, 37, 41, 45, 49},
    {4, 9, 12, 14, 19, 20, 22, 42, 44, 50},
    {1, 3, 7, 23, 26, 29, 34, 37, 41, 45},
    {3, 11, 23, 25, 26, 32, 34, 36, 38, 41},
    {3, 8, 11, 23, 25, 26, 31, 32, 37, 41},
    {4, 9, 12, 17, 19, 20, 35, 40, 42, 44, 50},
    {4, 9, 12, 14, 17, 20, 39, 42, 43, 44},
    {1, 3, 7, 23, 25, 34, 36, 37, 45, 49},
    {4, 9, 12, 17, 19, 20, 35, 39, 40, 44},
    {8, 11, 12, 14, 26, 31, 32, 40, 44, 47},
    {4, 9, 12, 14, 20, 31, 35, 40, 43, 47},
    {1, 2, 7, 15, 16, 23, 29, 36, 46, 48},
    {1, 2, 6, 15, 16, 18, 27, 29, 45, 48},
    {8, 11, 12, 14, 31, 32, 38, 40, 43, 44},
    {1, 2, 7, 15, 16, 29, 36, 45, 46, 49},
    {1, 3, 7, 23, 34, 36, 37, 41, 45, 48},
    {5, 6, 10, 18, 19, 21, 22, 28, 30, 35}
];
