n = 30;
allowed = [
    {14, 18, 22, 24},
    {11, 19, 21},
    {4, 28, 29},
    {3, 9, 28},
    {6, 23, 26},
    {16, 23, 26},
    {17, 25, 29},
    {12, 19, 20, 23},
    {3, 4, 28, 29},
    {1, 14, 15, 22},
    {2, 12, 19},
    {11, 13, 19},
    {12, 19, 20},
    {1, 10, 22},
    {1, 2, 21},
    {6, 17, 26},
    {7, 25, 29},
    {3, 21, 23, 28},
    {11, 12, 13},
    {8, 12, 13},
    {2, 10, 11, 15},
    {1, 24, 30},
    {6, 18, 28},
    {7, 25, 27},
    {7, 14, 24, 29},
    {1, 6, 16, 17},
    {24, 25, 29},
    {3, 4, 27, 29},
    {3, 7, 25},
    {5, 22, 24, 27}
];
