n = 50;
allowed = [
    {3, 4, 10, 15, 16, 17, 18, 36, 43, 50},
    {10, 20, 21, 23, 24, 27, 28, 30, 32, 44, 47},
    {1, 5, 10, 15, 16, 17, 18, 23, 36, 50},
    {6, 14, 29, 31, 37, 38, 39, 43, 49, 50},
    {1, 3, 10, 15, 16, 17, 20, 25, 32, 44},
    {4, 13, 14, 26, 31, 33, 39, 40, 43, 46},
    {4, 14, 15, 29, 37, 38, 42, 45, 49, 50},
    {12, 18, 21, 22, 23, 24, 30, 35, 47, 48},
    {2, 5, 10, 11, 19, 20, 25, 27, 32, 41, 44},
    {1, 3, 5, 16, 17, 20, 23, 27, 36, 44},
    {6, 13, 21, 22, 26, 33, 34, 40, 46, 48},
    {8, 11, 18, 21, 22, 30, 35, 46, 47, 48},
    {6, 21, 22, 26, 31, 33, 39, 40, 43, 46},
    {4, 6, 29, 31, 33, 38, 39, 43, 49, 50},
    {1, 3, 5, 7, 10, 16, 17, 37, 42, 50},
    {1, 3, 5, 10, 15, 17, 20, 36, 42, 50},
    {1, 3, 5, 10, 15, 16, 36, 37, 42, 50},
    {1, 12, 13, 21, 22, 36, 40, 43, 46, 48},
    {2, 5, 9, 10, 20, 25, 27, 32, 41, 44},
    {2, 5, 9, 10, 23, 25, 27, 32, 41, 44},
    {6, 13, 18, 22, 31, 33, 40, 43, 46, 48},
    {11, 12, 13, 18, 21, 33, 34, 40, 46, 48},
    {2, 10, 24, 27, 28, 30, 35, 36, 44, 47},
    {2, 10, 23, 27, 28, 30, 35, 36, 44, 47},
    {2, 5, 9, 10, 19, 20, 27, 32, 41, 44},
    {6, 11, 13, 14, 31, 33, 34, 39, 40, 46},
    {2, 10, 20, 23, 24, 28, 30, 32, 44, 47},
    {2, 20, 23, 24, 27, 30, 32, 35, 44, 47},
    {4, 7, 14, 31, 37, 38, 39, 43, 49, 50},
    {2, 8, 18, 23, 24, 27, 28, 35, 36, 47},
    {4, 6, 13, 14, 26, 33, 39, 40, 43, 46},
    {2, 5, 9, 10, 19, 20, 25, 27, 41, 44},
    {6, 13, 19, 21, 26, 31, 34, 39, 40, 43, 46},
    {6, 11, 13, 22, 26, 31, 33, 40, 46, 48},
    {2, 8, 12, 18, 23, 24, 27, 28, 30, 47},
    {1, 3, 10, 16, 17, 18, 23, 24, 30, 47},
    {4, 7, 14, 15, 29, 38, 42, 45, 49, 50},
    {4, 7, 14, 20, 29, 37, 39, 42, 43, 49, 50},
    {4, 6, 13, 14, 31, 33, 40, 43, 46, 49},
    {6, 13, 21, 22, 31, 33, 39, 43, 46, 48},
    {2, 5, 9, 10, 19, 20, 25, 27, 32, 44},
    {5, 7, 15, 16, 17, 29, 37, 38, 45, 50},
    {4, 6, 13, 14, 21, 31, 33, 39, 40, 46},
    {2, 5, 10, 20, 23, 24, 25, 27, 32, 41},
    {4, 7, 15, 17, 24, 29, 37, 38, 42, 49, 50},
    {6, 13, 21, 22, 31, 33, 39, 40, 43, 48},
    {2, 8, 10, 23, 24, 27, 28, 30, 35, 36},
    {11, 12, 13, 18, 21, 22, 33, 34, 40, 45, 46},
    {4, 7, 14, 29, 31, 37, 38, 39, 43, 50},
    {1, 4, 7, 14, 29, 37, 38, 39, 43, 49}
];
