n = 50;
allowed = [
    {19, 35, 42, 44},
    {23, 25, 29, 37, 44},
    {11, 42, 46, 48},
    {5, 20, 30, 39},
    {4, 6, 30, 40},
    {4, 5, 20, 31},
    {28, 34, 40, 45},
    {10, 18, 33, 49},
    {4, 30, 36, 39},
    {8, 18, 24, 49},
    {8, 18, 33, 37, 41},
    {14, 15, 27, 32},
    {10, 29, 31, 33, 50},
    {12, 15, 27, 32},
    {12, 14, 25, 32},
    {17, 19, 26, 35},
    {16, 19, 26, 46},
    {8, 10, 24, 49},
    {1, 17, 35, 42},
    {4, 30, 39, 41},
    {15, 22, 41, 43},
    {15, 21, 41, 43},
    {2, 8, 25, 37},
    {10, 18, 38, 49},
    {2, 6, 15, 23},
    {1, 16, 17, 19, 39},
    {12, 14, 15, 32},
    {7, 24, 38, 45, 47},
    {10, 13, 33, 50},
    {4, 9, 20, 39},
    {5, 6, 18, 42, 49},
    {12, 14, 15, 44, 50},
    {8, 10, 11, 18},
    {3, 7, 28, 36, 40},
    {1, 19, 42, 44},
    {9, 30, 34, 39},
    {2, 11, 23, 44},
    {7, 24, 28, 45},
    {4, 9, 20, 30},
    {5, 6, 7, 34},
    {4, 20, 21, 39},
    {1, 19, 46, 48},
    {2, 15, 21, 22, 41},
    {1, 2, 35, 37},
    {7, 24, 28, 38},
    {1, 17, 42, 48},
    {12, 14, 16, 32},
    {1, 3, 42, 46},
    {8, 10, 18, 24, 48},
    {10, 13, 29, 33}
];
