n = 30;
allowed = [
    {2, 3, 4, 15, 21, 29, 30},
    {1, 3, 15, 21, 27, 29, 30},
    {1, 2, 4, 14, 15, 21, 30},
    {1, 3, 14, 15, 21, 22, 30},
    {11, 13, 15, 20, 21, 28, 29},
    {2, 13, 15, 17, 20, 28, 29},
    {12, 19, 23, 24, 25, 26, 27},
    {3, 10, 16, 18, 19, 24, 27},
    {1, 3, 4, 14, 16, 22, 30},
    {8, 18, 19, 24, 25, 26, 27},
    {4, 5, 13, 21, 22, 25, 28, 29},
    {2, 7, 19, 23, 24, 26, 27},
    {1, 5, 6, 15, 20, 21, 29},
    {1, 3, 4, 9, 21, 22, 30},
    {1, 2, 4, 13, 21, 29, 30},
    {3, 8, 9, 10, 14, 18, 19},
    {5, 6, 13, 15, 20, 22, 28, 29},
    {8, 10, 16, 17, 19, 24, 25, 26},
    {7, 10, 12, 24, 25, 26, 27},
    {5, 6, 13, 15, 17, 28, 29},
    {1, 2, 4, 13, 15, 29, 30},
    {4, 9, 11, 14, 21, 29, 30},
    {6, 7, 12, 17, 24, 26, 27},
    {7, 10, 12, 19, 25, 26, 27},
    {7, 9, 10, 12, 19, 24, 26, 27},
    {7, 10, 12, 19, 24, 25, 27},
    {2, 7, 12, 19, 24, 26, 30},
    {5, 6, 11, 13, 17, 20, 29},
    {1, 2, 11, 13, 15, 21, 30},
    {1, 2, 3, 4, 15, 21, 29}
];
