n = 30;
allowed = [
    {2, 17, 24},
    {1, 17, 24},
    {8, 11, 28},
    {1, 17, 24, 25},
    {7, 13, 20, 23},
    {14, 21, 29, 30},
    {4, 14, 21, 30},
    {3, 11, 12, 28},
    {15, 25, 26},
    {9, 17, 25},
    {3, 8, 28},
    {7, 14, 30},
    {3, 5, 20},
    {7, 21, 30},
    {9, 16, 19, 26},
    {9, 15, 26},
    {2, 10, 18},
    {9, 17, 23, 25},
    {8, 11, 28},
    {1, 5, 13},
    {6, 7, 14},
    {8, 20, 23, 28},
    {2, 22, 24},
    {1, 2, 17},
    {9, 16, 18, 26},
    {9, 15, 16},
    {15, 16, 22, 29},
    {3, 8, 11},
    {15, 16, 27},
    {6, 7, 14}
];
