n = 50;
allowed = [
    {2, 3, 8, 19, 20, 36},
    {11, 15, 16, 32, 39},
    {19, 21, 24, 36, 42},
    {6, 18, 31, 33, 45},
    {14, 25, 31, 37, 38},
    {4, 18, 33, 41, 45},
    {10, 12, 14, 25, 37},
    {17, 20, 21, 29, 30, 40},
    {3, 27, 29, 31, 36, 42},
    {6, 7, 12, 16, 39},
    {2, 15, 16, 32, 39},
    {6, 7, 10, 39, 45},
    {22, 26, 27, 28, 40},
    {5, 25, 37, 38, 50},
    {2, 11, 16, 32, 39},
    {9, 10, 12, 15, 32, 39},
    {22, 26, 27, 30, 40},
    {4, 6, 33, 41, 45},
    {3, 21, 24, 36, 42},
    {8, 19, 21, 24, 30},
    {3, 19, 20, 24, 42},
    {13, 17, 26, 28, 40},
    {34, 35, 43, 44, 48},
    {3, 19, 21, 38, 42},
    {5, 7, 14, 37, 44, 50},
    {13, 17, 27, 30, 40},
    {3, 13, 26, 30, 40, 50},
    {13, 22, 26, 46, 49},
    {9, 31, 34, 35, 48},
    {17, 20, 26, 27, 40},
    {4, 5, 14, 29, 38, 46},
    {7, 10, 16, 39, 47},
    {6, 18, 41, 44, 45},
    {23, 29, 35, 43, 48},
    {14, 23, 29, 34, 43, 48},
    {3, 9, 19, 24, 42},
    {5, 7, 14, 25, 38},
    {5, 14, 24, 31, 37},
    {10, 12, 15, 16, 32},
    {13, 17, 26, 27, 30},
    {6, 18, 33, 44, 45},
    {3, 19, 21, 24, 36},
    {23, 33, 34, 35, 48},
    {6, 18, 33, 41, 43},
    {4, 6, 12, 18, 33},
    {13, 22, 28, 49, 50},
    {7, 25, 32, 49, 50},
    {23, 33, 34, 35, 43},
    {1, 13, 22, 28, 46, 50},
    {13, 14, 25, 27, 28}
];
