n = 100;
allowed = [
    {11, 15, 36, 46, 94},
    {5, 9, 73, 93, 99},
    {4, 16, 24, 26, 48},
    {3, 24, 48, 51, 68},
    {2, 9, 13, 73, 93},
    {18, 23, 47, 75, 96},
    {33, 50, 59, 63, 80},
    {12, 58, 71, 81, 86},
    {5, 13, 22, 37, 73, 93},
    {21, 28, 31, 92, 96},
    {1, 15, 36, 46, 94},
    {8, 58, 71, 78, 86},
    {5, 9, 41, 64, 93},
    {32, 43, 62, 76, 82},
    {1, 11, 36, 46, 55},
    {3, 26, 31, 48, 84},
    {33, 53, 69, 85, 91},
    {6, 23, 47, 75, 100},
    {41, 64, 83, 92, 94, 97},
    {6, 38, 54, 61, 77, 89},
    {10, 26, 31, 59, 90, 92},
    {9, 13, 29, 64, 74},
    {24, 47, 52, 75, 87, 96},
    {3, 4, 16, 48, 51, 68},
    {1, 36, 46, 88, 94},
    {3, 16, 31, 38, 48, 52},
    {15, 32, 40, 53, 91},
    {10, 34, 37, 92, 98},
    {22, 30, 72, 74, 95},
    {22, 29, 74, 95, 99},
    {10, 26, 52, 87, 92},
    {43, 55, 62, 76, 82},
    {7, 17, 63, 69, 80},
    {10, 50, 59, 67, 78},
    {17, 33, 36, 53, 80, 85},
    {1, 11, 25, 46, 94},
    {10, 28, 60, 96, 98},
    {20, 42, 54, 77, 89},
    {2, 51, 68, 85, 93, 100},
    {27, 66, 69, 84, 91},
    {13, 22, 64, 72, 83},
    {6, 38, 61, 77, 89},
    {14, 32, 62, 76, 82, 97},
    {45, 49, 65, 79, 100},
    {44, 49, 65, 79, 100},
    {11, 15, 25, 36, 55},
    {23, 52, 75, 87, 96},
    {3, 4, 16, 26, 84},
    {44, 45, 60, 65, 79, 100},
    {7, 59, 63, 78, 86},
    {3, 4, 24, 39, 68},
    {26, 31, 47, 75, 87},
    {17, 27, 35, 85, 91},
    {20, 38, 61, 77, 89},
    {15, 25, 36, 46, 76},
    {12, 34, 67, 71, 78},
    {2, 30, 73, 74, 99},
    {8, 12, 80, 81, 86},
    {7, 34, 50, 63, 78},
    {28, 37, 43, 56, 67, 98},
    {20, 42, 54, 77, 89},
    {25, 32, 46, 55, 76},
    {7, 33, 50, 59, 80},
    {13, 22, 41, 72, 83},
    {44, 45, 49, 79, 100},
    {1, 11, 24, 40, 91},
    {12, 34, 56, 71, 78},
    {3, 4, 24, 39, 51},
    {17, 33, 40, 84, 91},
    {20, 38, 39, 54, 89, 90},
    {12, 56, 67, 78, 81, 88},
    {22, 29, 41, 64, 83},
    {2, 5, 9, 93, 99},
    {9, 22, 29, 30, 99},
    {23, 47, 52, 87, 96},
    {25, 32, 46, 55, 62},
    {38, 42, 54, 61, 89},
    {12, 34, 50, 59, 71},
    {44, 45, 49, 65, 100},
    {7, 33, 50, 63, 86},
    {8, 12, 58, 71, 86},
    {14, 32, 43, 62, 76},
    {19, 41, 64, 72, 97},
    {16, 26, 31, 48, 69},
    {17, 33, 35, 53, 69},
    {50, 58, 63, 78, 80},
    {23, 47, 52, 75, 96},
    {1, 25, 36, 46, 83, 94},
    {20, 38, 54, 61, 77},
    {20, 38, 54, 70, 89},
    {17, 27, 40, 53, 69},
    {10, 21, 28, 31, 87},
    {2, 5, 9, 13, 73},
    {1, 4, 11, 25, 36, 46},
    {22, 29, 30, 72, 74},
    {23, 47, 52, 75, 87},
    {19, 41, 64, 72, 83},
    {10, 28, 34, 37, 60},
    {2, 9, 57, 73, 74},
    {18, 39, 45, 49, 79}
];
