n = 30;
allowed = [
    {8, 11, 17, 20, 21, 22, 26},
    {7, 10, 16, 24, 25, 28, 29},
    {6, 9, 13, 18, 23, 27, 30},
    {5, 6, 8, 18, 19, 21, 30},
    {4, 6, 8, 18, 19, 27, 30},
    {4, 5, 13, 18, 19, 27, 30},
    {10, 12, 14, 16, 20, 24, 26},
    {1, 4, 5, 6, 11, 19, 21},
    {3, 5, 6, 13, 18, 23, 27},
    {7, 12, 14, 16, 20, 22, 24, 26},
    {1, 8, 14, 17, 20, 21, 26},
    {7, 10, 14, 16, 20, 24, 26},
    {3, 5, 6, 9, 18, 27, 30},
    {7, 10, 12, 16, 17, 20, 26},
    {2, 9, 18, 23, 27, 28, 29},
    {2, 7, 10, 12, 24, 25, 29},
    {1, 7, 11, 12, 14, 20, 26},
    {3, 5, 6, 9, 13, 27, 30},
    {4, 5, 6, 8, 13, 18, 30},
    {7, 10, 11, 12, 14, 17, 26},
    {1, 4, 5, 7, 8, 11, 26, 28},
    {1, 4, 8, 11, 17, 19, 21, 23},
    {3, 9, 13, 15, 18, 27, 28},
    {2, 7, 10, 12, 16, 25, 29},
    {2, 7, 10, 16, 24, 28, 29},
    {7, 10, 11, 12, 14, 17, 20},
    {3, 5, 6, 9, 13, 18, 30},
    {2, 15, 16, 23, 24, 25, 29},
    {2, 7, 10, 16, 24, 25, 28},
    {4, 5, 6, 13, 18, 19, 27}
];
