n = 50;
allowed = [
    {39, 42, 44, 46},
    {5, 11, 19, 32, 34},
    {4, 28, 29, 47},
    {3, 28, 33, 47},
    {6, 8, 23, 26, 35},
    {23, 26, 35, 45},
    {2, 17, 24, 25, 29},
    {11, 12, 19, 20},
    {4, 33, 47, 50},
    {14, 38, 40, 46},
    {12, 19, 34, 37},
    {11, 19, 34, 37},
    {12, 19, 20, 37},
    {10, 36, 38, 44},
    {21, 39, 41, 44},
    {17, 26, 43, 49},
    {7, 25, 29, 45},
    {3, 23, 28, 45},
    {11, 12, 34, 37, 39},
    {8, 12, 13, 31, 37},
    {2, 15, 41, 43},
    {30, 42, 46, 48},
    {6, 18, 35, 45},
    {7, 25, 27, 42},
    {7, 17, 24, 29},
    {6, 16, 43, 49},
    {1, 24, 25, 29, 50},
    {3, 4, 45, 47},
    {3, 7, 25, 28},
    {22, 42, 46, 48},
    {5, 8, 20, 22, 26},
    {2, 11, 19, 34},
    {3, 4, 9, 47},
    {11, 12, 19, 37},
    {5, 6, 23, 26},
    {14, 15, 39, 44},
    {11, 12, 13, 19},
    {10, 14, 40, 46},
    {1, 15, 18, 36, 44},
    {10, 14, 32, 38, 46},
    {2, 15, 21, 43},
    {1, 22, 24, 46},
    {16, 21, 41, 49},
    {1, 15, 36, 39},
    {7, 17, 23, 28},
    {1, 22, 30, 42},
    {3, 4, 9, 33},
    {22, 30, 42, 46, 49},
    {16, 26, 41, 43},
    {9, 24, 27, 29}
];
