n = 50;
allowed = [
    {11, 15, 19, 25, 27, 36, 46},
    {5, 9, 13, 19, 22, 30, 39, 49},
    {4, 16, 24, 26, 31, 47, 48},
    {3, 16, 24, 26, 31, 47, 48},
    {2, 9, 13, 22, 29, 39, 41},
    {18, 23, 31, 38, 42, 45, 47},
    {10, 12, 17, 21, 33, 34, 50},
    {7, 12, 17, 20, 33, 34, 35, 50},
    {2, 5, 13, 22, 29, 30, 41},
    {21, 23, 26, 28, 31, 34, 47},
    {1, 15, 25, 27, 36, 40, 46},
    {7, 8, 10, 21, 33, 34, 50},
    {2, 5, 9, 22, 29, 39, 41},
    {11, 15, 25, 32, 36, 43, 46},
    {1, 11, 25, 27, 36, 40, 46},
    {3, 4, 21, 24, 26, 31, 48},
    {7, 16, 27, 33, 35, 40, 50},
    {3, 4, 6, 23, 39, 45, 47},
    {1, 11, 12, 13, 25, 36, 41, 46},
    {6, 18, 23, 28, 37, 38, 42, 45},
    {7, 10, 16, 26, 31, 34, 50},
    {2, 5, 9, 13, 29, 30, 41},
    {6, 10, 18, 26, 28, 31, 47},
    {3, 4, 16, 26, 39, 40, 48},
    {1, 11, 15, 19, 32, 36, 46},
    {3, 4, 16, 21, 31, 47, 48},
    {1, 11, 13, 15, 17, 32, 40, 46},
    {10, 21, 23, 31, 34, 37, 47},
    {2, 5, 9, 13, 22, 30, 41},
    {2, 5, 9, 13, 22, 29, 41},
    {10, 16, 21, 23, 26, 47, 48},
    {14, 15, 25, 27, 36, 43, 46},
    {7, 16, 17, 21, 34, 35, 50},
    {7, 10, 12, 21, 28, 37, 50},
    {7, 17, 27, 32, 33, 40, 50},
    {1, 11, 15, 19, 25, 32, 46},
    {10, 23, 28, 31, 34, 42, 47},
    {6, 18, 20, 23, 42, 45, 47},
    {2, 4, 5, 9, 18, 45, 49},
    {1, 11, 15, 16, 17, 27, 48},
    {2, 5, 9, 13, 19, 22, 29},
    {6, 20, 23, 28, 37, 38, 47},
    {14, 15, 25, 27, 32, 36, 46},
    {2, 6, 18, 38, 39, 45, 49},
    {2, 6, 18, 38, 39, 44, 49},
    {1, 11, 15, 25, 27, 32, 36},
    {4, 6, 10, 18, 23, 26, 31},
    {3, 4, 16, 21, 24, 26, 31, 37},
    {2, 5, 9, 18, 39, 44, 45},
    {7, 8, 10, 12, 21, 33, 34}
];
