n = 30;
allowed = [
    {2, 3, 6, 8, 10, 13, 17, 18, 21, 28},
    {1, 3, 10, 11, 12, 16, 17, 21, 25, 26},
    {1, 2, 10, 16, 17, 19, 20, 21, 25, 30},
    {5, 8, 13, 14, 15, 18, 20, 23, 28, 29},
    {4, 6, 8, 13, 15, 18, 20, 23, 28, 29},
    {1, 4, 5, 8, 13, 15, 17, 18, 21, 28},
    {9, 14, 15, 20, 22, 23, 24, 27, 29, 30},
    {1, 4, 5, 6, 13, 15, 18, 21, 23, 28},
    {7, 10, 14, 19, 20, 22, 23, 24, 27, 30},
    {2, 3, 12, 16, 17, 19, 20, 21, 25, 30},
    {2, 3, 10, 12, 16, 17, 19, 25, 26, 30},
    {2, 3, 10, 11, 16, 17, 19, 25, 26, 30},
    {1, 3, 4, 5, 6, 8, 17, 18, 21, 28},
    {4, 7, 9, 15, 20, 23, 24, 27, 28, 29},
    {4, 5, 7, 8, 14, 20, 23, 27, 28, 29},
    {2, 3, 10, 12, 17, 19, 21, 22, 25, 30},
    {1, 2, 3, 10, 12, 13, 16, 19, 21, 25},
    {1, 4, 5, 6, 8, 13, 15, 21, 23, 28},
    {2, 3, 10, 12, 16, 17, 21, 22, 25, 30},
    {3, 4, 5, 7, 14, 15, 23, 27, 28, 29},
    {1, 2, 3, 8, 10, 16, 17, 19, 20, 25},
    {7, 9, 10, 12, 16, 19, 24, 25, 27, 29, 30},
    {4, 5, 7, 14, 15, 20, 21, 27, 28, 29},
    {7, 9, 14, 15, 19, 20, 22, 23, 27, 30},
    {2, 3, 10, 12, 16, 17, 19, 21, 26, 30},
    {2, 3, 10, 11, 12, 16, 17, 19, 25, 30},
    {7, 9, 14, 15, 20, 22, 23, 24, 28, 29},
    {4, 5, 8, 14, 15, 18, 20, 21, 23, 29},
    {4, 5, 7, 8, 14, 15, 20, 23, 27, 28},
    {3, 9, 10, 12, 16, 19, 22, 24, 25, 27}
];
