n = 30;
allowed = [
    {3, 8, 9, 17, 19, 20, 21, 23, 24, 26, 30},
    {4, 6, 7, 10, 11, 12, 15, 16, 18, 25},
    {1, 5, 8, 9, 19, 20, 21, 24, 29, 30},
    {5, 6, 7, 10, 12, 14, 18, 23, 25, 29},
    {3, 4, 7, 12, 14, 21, 24, 25, 27, 30},
    {4, 7, 10, 12, 14, 15, 16, 18, 23, 25},
    {4, 5, 6, 10, 12, 14, 15, 16, 18, 25},
    {1, 3, 17, 19, 20, 21, 24, 26, 27, 30},
    {1, 3, 4, 5, 19, 20, 21, 23, 24, 29},
    {4, 5, 6, 7, 12, 14, 15, 16, 18, 25},
    {2, 4, 6, 7, 10, 12, 15, 16, 18, 25, 28},
    {4, 5, 6, 7, 10, 14, 15, 16, 18, 25},
    {5, 8, 14, 17, 20, 22, 26, 27, 28, 30},
    {3, 4, 5, 7, 10, 12, 21, 24, 25, 27},
    {2, 4, 6, 7, 10, 11, 12, 16, 18, 25},
    {2, 4, 6, 7, 10, 11, 12, 15, 18, 25},
    {8, 13, 20, 21, 22, 24, 26, 27, 28, 30},
    {4, 6, 7, 10, 12, 14, 16, 23, 25, 29},
    {1, 3, 5, 8, 9, 20, 21, 24, 29, 30},
    {1, 3, 8, 17, 19, 21, 24, 26, 27, 30},
    {1, 3, 5, 8, 19, 20, 24, 26, 27, 30},
    {5, 8, 13, 17, 20, 21, 26, 27, 28, 30},
    {3, 4, 5, 6, 7, 9, 10, 12, 18, 24, 29},
    {3, 5, 8, 9, 14, 19, 20, 21, 27, 30},
    {4, 5, 7, 10, 12, 13, 14, 24, 27, 28},
    {8, 13, 17, 20, 21, 22, 24, 27, 28, 30},
    {5, 13, 14, 17, 20, 21, 22, 26, 28, 30},
    {1, 5, 13, 14, 17, 20, 22, 25, 26, 27, 30},
    {3, 4, 5, 9, 14, 18, 19, 21, 23, 24},
    {8, 13, 17, 20, 21, 22, 24, 26, 27, 28}
];
