n = 50;
allowed = [
    {2, 7, 45, 48, 49},
    {15, 16, 29, 45, 46},
    {23, 34, 36, 37, 41},
    {9, 17, 20, 39, 42},
    {10, 13, 30, 33, 50},
    {15, 18, 21, 27, 30},
    {1, 34, 45, 48, 49},
    {11, 31, 38, 43, 47},
    {4, 12, 17, 20, 42},
    {5, 13, 24, 33, 50},
    {25, 26, 31, 32, 37},
    {9, 20, 39, 40, 44},
    {5, 10, 24, 28, 33, 39},
    {9, 12, 22, 35, 44},
    {2, 6, 16, 29, 46},
    {2, 15, 29, 46, 48},
    {4, 9, 20, 39, 42},
    {6, 15, 21, 27, 30},
    {4, 9, 35, 42, 50},
    {4, 9, 17, 39, 42},
    {6, 18, 22, 27, 30},
    {6, 18, 21, 27, 30, 48},
    {3, 34, 36, 37, 41},
    {5, 10, 13, 28, 33},
    {3, 11, 26, 37, 38},
    {11, 31, 32, 36, 37},
    {6, 18, 21, 22, 29},
    {5, 10, 13, 24, 33},
    {2, 14, 15, 16, 45, 46},
    {5, 6, 15, 18, 22},
    {11, 26, 32, 43, 47},
    {11, 21, 26, 31, 37},
    {5, 10, 13, 24, 28},
    {3, 7, 23, 41, 49},
    {4, 9, 12, 14, 19, 22},
    {3, 23, 34, 37, 45},
    {3, 23, 26, 32, 36},
    {8, 11, 25, 26, 28, 37},
    {4, 9, 17, 20, 40},
    {9, 12, 20, 39, 44},
    {3, 23, 25, 34, 36, 49},
    {4, 9, 17, 18, 20, 39},
    {8, 31, 40, 44, 47},
    {9, 12, 14, 35, 40, 43},
    {1, 2, 7, 29, 36},
    {2, 15, 16, 29, 45},
    {8, 11, 31, 43, 44},
    {1, 2, 7, 16, 19, 46},
    {1, 7, 23, 34, 41},
    {5, 10, 19, 22, 30}
];
