n = 30;
allowed = [
    {3, 5, 6, 9, 11, 12, 13, 18, 22, 23, 29},
    {4, 5, 6, 9, 11, 17, 19, 21, 23, 29},
    {7, 10, 13, 14, 20, 22, 24, 26, 28, 30},
    {2, 8, 11, 15, 16, 17, 19, 21, 29, 30},
    {1, 6, 9, 11, 12, 19, 22, 23, 29, 30},
    {1, 2, 5, 9, 11, 12, 17, 19, 23, 29},
    {3, 12, 13, 14, 20, 22, 24, 26, 28, 30},
    {4, 10, 15, 16, 18, 19, 21, 25, 27, 30},
    {1, 5, 6, 11, 12, 17, 19, 22, 23, 29},
    {3, 8, 15, 18, 24, 25, 26, 27, 28, 30},
    {2, 4, 5, 6, 9, 17, 19, 21, 29, 30},
    {1, 3, 5, 6, 9, 11, 13, 22, 23, 29},
    {1, 3, 5, 7, 12, 14, 20, 22, 26, 30},
    {1, 3, 7, 12, 13, 20, 22, 24, 26, 28},
    {4, 8, 10, 16, 18, 19, 21, 25, 27, 30},
    {4, 8, 10, 15, 18, 19, 21, 25, 27, 30},
    {2, 4, 5, 6, 9, 11, 19, 23, 29, 30},
    {3, 8, 10, 15, 24, 25, 26, 27, 28, 30},
    {2, 4, 5, 6, 9, 11, 17, 21, 29, 30},
    {3, 7, 10, 13, 14, 22, 24, 26, 28, 30},
    {4, 8, 11, 15, 16, 19, 25, 27, 29, 30},
    {1, 3, 5, 7, 9, 12, 13, 14, 23, 30},
    {1, 5, 6, 9, 11, 12, 17, 19, 22, 29},
    {3, 7, 10, 18, 20, 25, 26, 27, 28, 30},
    {8, 10, 15, 16, 18, 21, 24, 27, 28, 30},
    {3, 7, 10, 13, 14, 18, 20, 22, 24, 28},
    {8, 10, 15, 16, 18, 21, 24, 25, 28, 30},
    {3, 7, 10, 18, 20, 24, 25, 26, 27, 30},
    {2, 4, 5, 6, 9, 11, 17, 19, 23, 30},
    {3, 4, 5, 6, 10, 11, 19, 21, 22, 29}
];
