n = 50;
allowed = [
    {15, 30, 32},
    {1, 15, 30},
    {4, 5, 30, 46},
    {3, 30, 32},
    {11, 28, 48},
    {17, 20, 35},
    {12, 31, 35, 41},
    {16, 39, 41, 49},
    {4, 14, 46},
    {19, 24, 33},
    {5, 29, 37},
    {7, 31, 41},
    {15, 20, 29},
    {3, 4, 9},
    {1, 2, 21},
    {39, 43, 49},
    {6, 35, 45},
    {8, 10, 33},
    {24, 25, 26},
    {6, 17, 35},
    {1, 15, 16, 32},
    {4, 12, 14, 37},
    {38, 40, 50},
    {19, 25, 26},
    {19, 24, 26},
    {19, 24, 25, 48},
    {19, 26, 31},
    {36, 44, 46, 48},
    {13, 15, 21, 23},
    {1, 21, 32},
    {7, 12, 27},
    {1, 21, 30},
    {8, 10, 13, 18},
    {16, 39, 49},
    {17, 20, 42},
    {28, 44, 48},
    {4, 11, 22},
    {7, 14, 23, 40},
    {8, 16, 49},
    {7, 23, 38},
    {7, 12, 31},
    {17, 18, 35, 36},
    {16, 39, 49},
    {28, 36, 48},
    {6, 17, 47},
    {3, 34, 43},
    {6, 45, 50},
    {28, 36, 44},
    {16, 34, 39},
    {6, 42, 45, 47}
];
