n = 50;
allowed = [
    {16, 17, 19, 26, 35, 37, 42, 44, 46, 48},
    {8, 11, 14, 15, 23, 25, 31, 32, 37, 44},
    {1, 11, 13, 19, 33, 35, 37, 42, 46, 48},
    {5, 6, 9, 20, 30, 34, 36, 39, 40, 41},
    {4, 6, 7, 9, 20, 22, 30, 31, 34, 39, 40},
    {4, 5, 7, 20, 25, 30, 31, 39, 40, 41},
    {5, 6, 24, 28, 31, 34, 38, 40, 45, 49},
    {2, 10, 11, 18, 23, 24, 31, 33, 37, 49},
    {4, 5, 6, 20, 30, 34, 36, 39, 40, 41},
    {7, 8, 13, 18, 24, 29, 31, 33, 38, 49},
    {2, 3, 8, 10, 18, 23, 29, 33, 37, 42},
    {2, 14, 15, 21, 23, 25, 27, 32, 44, 47},
    {8, 10, 11, 18, 24, 29, 33, 38, 49, 50},
    {2, 12, 15, 21, 23, 25, 27, 32, 44, 47},
    {2, 12, 14, 21, 23, 25, 27, 32, 41, 42, 43},
    {1, 17, 19, 26, 35, 42, 44, 46, 47, 48},
    {1, 3, 16, 19, 26, 35, 42, 44, 46, 48},
    {8, 10, 13, 23, 24, 29, 31, 33, 38, 49},
    {1, 16, 17, 26, 35, 37, 42, 44, 46, 48},
    {4, 5, 6, 9, 21, 25, 30, 39, 40, 41},
    {4, 6, 14, 15, 20, 22, 25, 27, 41, 43},
    {12, 14, 15, 20, 21, 25, 27, 39, 41, 43},
    {2, 6, 8, 18, 25, 31, 33, 37, 44, 49},
    {7, 8, 10, 18, 28, 31, 38, 40, 45, 49},
    {2, 5, 6, 14, 15, 20, 23, 31, 32, 41},
    {1, 16, 17, 19, 35, 42, 44, 46, 47, 48},
    {12, 14, 15, 21, 22, 25, 32, 41, 43, 47},
    {5, 7, 10, 24, 31, 34, 38, 40, 45, 49},
    {8, 10, 11, 13, 18, 24, 33, 38, 49, 50},
    {4, 5, 6, 9, 20, 34, 36, 39, 40, 41},
    {5, 6, 7, 8, 10, 18, 23, 24, 40, 49},
    {2, 12, 14, 15, 23, 25, 27, 35, 44, 47},
    {8, 10, 11, 13, 18, 23, 29, 37, 49, 50},
    {4, 5, 7, 9, 28, 30, 36, 38, 40, 45},
    {1, 16, 17, 19, 26, 37, 42, 44, 46, 48},
    {4, 5, 6, 7, 9, 20, 30, 34, 39, 40},
    {1, 2, 8, 11, 19, 23, 33, 35, 42, 44},
    {7, 10, 18, 24, 28, 31, 34, 40, 45, 49},
    {4, 5, 6, 9, 20, 30, 34, 36, 40, 41},
    {4, 5, 6, 7, 24, 28, 30, 31, 34, 45},
    {4, 5, 6, 20, 21, 22, 25, 30, 39, 43},
    {1, 3, 11, 17, 19, 35, 37, 44, 46, 48},
    {12, 14, 15, 20, 21, 22, 25, 27, 32, 41},
    {1, 2, 12, 14, 19, 23, 32, 35, 37, 42},
    {7, 10, 18, 24, 28, 31, 34, 38, 40, 49},
    {1, 3, 16, 17, 19, 26, 35, 42, 44, 48},
    {1, 12, 14, 16, 19, 26, 27, 32, 35, 44},
    {1, 3, 11, 17, 19, 26, 35, 37, 42, 46},
    {7, 8, 10, 18, 24, 29, 31, 33, 38, 40},
    {8, 10, 11, 13, 18, 24, 29, 33, 38, 49}
];
