n = 100;
allowed = [
    {14, 22, 39, 42, 44, 46, 54, 63, 88, 89},
    {11, 12, 19, 21, 32, 34, 41, 90, 91, 93},
    {4, 28, 29, 33, 45, 47, 53, 66, 67, 73},
    {3, 9, 28, 29, 33, 47, 53, 66, 67, 85},
    {35, 60, 64, 70, 71, 75, 76, 86, 94, 100},
    {23, 26, 35, 45, 60, 65, 73, 74, 84, 87},
    {17, 24, 25, 29, 45, 66, 67, 73, 77, 79},
    {11, 12, 13, 19, 20, 31, 34, 37, 62, 96},
    {3, 4, 33, 47, 50, 53, 57, 68, 78, 85},
    {14, 38, 40, 46, 52, 69, 82, 83, 89, 97},
    {2, 12, 13, 19, 32, 34, 37, 62, 90, 93},
    {2, 8, 11, 13, 19, 20, 34, 37, 55, 62, 96},
    {8, 11, 12, 19, 20, 32, 34, 37, 62, 80},
    {10, 36, 38, 44, 56, 82, 83, 88, 89, 97},
    {21, 36, 39, 41, 44, 56, 88, 91, 92, 93},
    {17, 26, 43, 49, 59, 60, 65, 72, 87, 92},
    {7, 25, 45, 59, 72, 73, 77, 79, 87, 92},
    {3, 4, 23, 28, 45, 51, 66, 73, 74, 98},
    {2, 8, 11, 12, 13, 20, 32, 34, 37, 62},
    {8, 11, 12, 13, 19, 31, 34, 37, 62, 96},
    {2, 15, 36, 39, 41, 43, 44, 49, 91, 93},
    {1, 30, 42, 46, 48, 63, 69, 82, 89, 95},
    {6, 18, 35, 45, 51, 73, 74, 84, 87, 98},
    {7, 25, 27, 29, 42, 46, 54, 55, 81, 95},
    {7, 16, 17, 24, 27, 29, 54, 67, 77, 79, 95},
    {6, 16, 35, 43, 49, 59, 60, 65, 72, 87},
    {24, 25, 29, 42, 50, 55, 61, 68, 81, 95},
    {3, 4, 18, 29, 45, 47, 53, 66, 67, 73},
    {3, 4, 7, 25, 27, 28, 53, 66, 67, 77},
    {22, 42, 46, 48, 61, 69, 81, 82, 89, 95},
    {8, 20, 60, 64, 71, 75, 76, 86, 94, 96},
    {2, 11, 12, 19, 34, 37, 80, 90, 91, 93},
    {3, 4, 9, 28, 47, 53, 57, 78, 85, 99},
    {2, 11, 12, 13, 19, 32, 37, 62, 80, 90},
    {5, 6, 23, 60, 65, 70, 71, 76, 84, 100},
    {14, 15, 39, 44, 56, 58, 83, 88, 91, 97},
    {2, 8, 11, 12, 13, 19, 20, 34, 62, 80},
    {10, 14, 40, 56, 69, 82, 83, 88, 89, 97},
    {1, 15, 36, 44, 54, 56, 63, 88, 89, 92},
    {10, 14, 38, 52, 56, 69, 82, 83, 89, 97},
    {2, 15, 21, 37, 43, 49, 72, 90, 91, 92, 93},
    {1, 22, 24, 30, 46, 48, 54, 63, 89, 95},
    {15, 16, 21, 26, 41, 49, 59, 65, 72, 92},
    {1, 14, 15, 36, 39, 54, 56, 63, 88, 89},
    {7, 17, 23, 28, 66, 67, 73, 77, 79, 87},
    {1, 22, 30, 42, 48, 54, 63, 69, 82, 89},
    {3, 4, 9, 28, 33, 53, 57, 66, 78, 85},
    {22, 27, 30, 42, 46, 61, 69, 81, 89, 95},
    {16, 21, 26, 41, 43, 59, 65, 72, 87, 92},
    {9, 27, 29, 53, 55, 57, 61, 68, 81, 95},
    {3, 18, 23, 28, 45, 66, 73, 74, 84, 98},
    {10, 14, 22, 25, 38, 40, 69, 82, 83, 89, 97},
    {3, 4, 9, 29, 47, 57, 66, 67, 68, 85},
    {1, 22, 24, 25, 42, 44, 46, 63, 89, 95},
    {24, 27, 29, 50, 57, 61, 67, 68, 81, 95},
    {14, 15, 36, 38, 39, 44, 83, 88, 91, 97},
    {4, 9, 29, 47, 50, 53, 55, 61, 68, 85},
    {2, 15, 32, 36, 56, 83, 90, 91, 93, 97},
    {16, 17, 26, 43, 49, 65, 72, 79, 87, 92},
    {5, 6, 16, 26, 35, 64, 65, 71, 76, 100},
    {24, 27, 30, 48, 50, 55, 57, 68, 81, 95},
    {2, 8, 11, 12, 13, 19, 20, 34, 37, 96},
    {1, 14, 22, 39, 42, 44, 46, 54, 88, 89},
    {5, 31, 35, 60, 71, 75, 76, 86, 94, 100},
    {6, 16, 23, 26, 35, 49, 59, 60, 72, 87},
    {3, 4, 28, 29, 45, 47, 53, 67, 73, 77},
    {3, 4, 7, 25, 28, 29, 53, 66, 73, 77},
    {9, 27, 29, 50, 53, 55, 57, 61, 81, 85},
    {1, 10, 22, 30, 38, 46, 48, 63, 82, 89, 90},
    {5, 6, 19, 23, 35, 51, 71, 74, 75, 84, 100},
    {5, 35, 60, 64, 75, 76, 84, 86, 94, 100},
    {15, 16, 17, 39, 43, 49, 59, 79, 87, 92},
    {7, 17, 23, 28, 29, 45, 66, 67, 77, 79},
    {6, 18, 23, 35, 45, 51, 70, 73, 84, 98},
    {5, 35, 60, 64, 70, 71, 76, 86, 94, 100},
    {5, 31, 35, 60, 64, 71, 75, 86, 94, 100},
    {7, 17, 25, 28, 29, 45, 66, 67, 73, 79},
    {3, 4, 9, 28, 33, 47, 53, 57, 85, 99},
    {7, 17, 25, 45, 59, 72, 73, 77, 87, 92},
    {2, 11, 12, 13, 19, 32, 34, 37, 62, 90},
    {22, 24, 27, 30, 48, 50, 55, 61, 68, 95},
    {10, 14, 22, 30, 38, 40, 46, 48, 69, 89},
    {10, 14, 36, 38, 39, 44, 56, 58, 88, 97},
    {5, 6, 18, 23, 35, 51, 60, 70, 74, 100},
    {3, 4, 9, 33, 47, 50, 53, 57, 68, 78},
    {5, 31, 35, 60, 64, 71, 75, 76, 94, 100},
    {6, 16, 17, 26, 45, 59, 65, 73, 77, 79},
    {1, 14, 15, 36, 38, 39, 44, 56, 63, 83},
    {1, 14, 22, 38, 42, 46, 54, 63, 69, 82},
    {2, 11, 19, 21, 32, 34, 58, 80, 91, 93},
    {2, 15, 21, 32, 36, 56, 58, 83, 90, 93},
    {15, 17, 39, 43, 44, 49, 54, 59, 72, 79},
    {2, 11, 15, 21, 32, 34, 41, 58, 90, 91},
    {5, 31, 35, 60, 64, 71, 75, 76, 86, 100},
    {24, 25, 27, 30, 42, 48, 50, 55, 61, 81},
    {8, 12, 16, 19, 20, 26, 31, 43, 49, 62},
    {10, 14, 36, 38, 40, 56, 58, 83, 88, 91},
    {3, 4, 18, 23, 28, 45, 51, 66, 73, 74},
    {3, 4, 9, 18, 28, 33, 47, 52, 78, 85, 98},
    {5, 35, 64, 70, 71, 75, 76, 84, 86, 94}
];
