n = 100;
allowed = [
    {7, 12, 20, 59, 73, 83, 88},
    {13, 24, 25, 39, 63, 97, 99},
    {8, 9, 28, 32, 33, 51, 81},
    {22, 36, 50, 55, 87, 89, 96},
    {29, 41, 53, 61, 66, 74, 95},
    {29, 44, 52, 67, 72, 94, 95},
    {1, 20, 24, 30, 39, 59, 99},
    {3, 9, 28, 32, 33, 51, 68},
    {3, 8, 26, 32, 33, 46, 51, 81},
    {12, 23, 35, 48, 82, 83, 88},
    {37, 39, 40, 60, 62, 64, 68, 69},
    {1, 20, 23, 59, 73, 83, 88},
    {2, 24, 25, 47, 63, 78, 97},
    {15, 16, 31, 49, 52, 65, 90},
    {14, 35, 39, 48, 52, 65, 90},
    {14, 21, 31, 49, 52, 65, 95},
    {19, 27, 58, 84, 91, 92, 93},
    {3, 8, 28, 40, 46, 51, 68},
    {17, 27, 58, 74, 84, 89, 93},
    {1, 7, 12, 30, 59, 73, 99},
    {14, 16, 31, 49, 65, 70, 77},
    {36, 41, 55, 56, 86, 87, 89, 96},
    {1, 10, 12, 35, 48, 83, 88},
    {2, 7, 25, 30, 39, 97, 99},
    {2, 13, 24, 39, 63, 78, 97},
    {21, 38, 70, 79, 80, 82, 85},
    {17, 19, 58, 66, 74, 84, 93},
    {3, 8, 18, 32, 46, 68, 81},
    {5, 6, 16, 44, 52, 61, 95},
    {1, 7, 20, 24, 59, 73, 99},
    {14, 15, 16, 21, 49, 65, 95},
    {3, 8, 28, 43, 68, 81, 100},
    {3, 8, 9, 42, 47, 51, 81},
    {42, 43, 72, 76, 94, 98, 100},
    {10, 15, 23, 48, 65, 83, 88},
    {4, 22, 50, 55, 56, 87, 96},
    {11, 60, 62, 64, 68, 69, 100},
    {10, 18, 21, 26, 70, 80, 82, 85},
    {2, 7, 15, 24, 25, 45, 97, 99},
    {11, 18, 28, 37, 60, 64, 69},
    {22, 53, 55, 66, 86, 89, 96},
    {34, 43, 47, 63, 76, 81, 98},
    {34, 42, 76, 81, 94, 98, 100},
    {6, 29, 52, 67, 72, 94, 95},
    {5, 41, 44, 53, 62, 75, 84, 86},
    {3, 8, 9, 18, 28, 51, 68},
    {13, 25, 36, 42, 43, 63, 76, 78},
    {10, 14, 15, 23, 35, 65, 83},
    {14, 15, 16, 21, 31, 48, 65},
    {4, 22, 29, 36, 54, 55, 56, 87},
    {3, 8, 9, 18, 28, 33, 46},
    {6, 14, 15, 16, 72, 90, 95},
    {5, 41, 66, 74, 86, 89, 96},
    {4, 36, 50, 55, 56, 87, 96},
    {22, 36, 75, 86, 87, 89, 96},
    {4, 36, 50, 54, 55, 87, 96},
    {17, 58, 79, 80, 91, 92, 93},
    {17, 19, 27, 84, 91, 92, 93},
    {1, 7, 12, 20, 30, 73, 99},
    {11, 37, 40, 62, 64, 69, 71},
    {5, 6, 29, 37, 44, 66, 74, 95},
    {11, 37, 45, 60, 64, 69, 71},
    {2, 13, 25, 42, 47, 76, 78},
    {11, 37, 40, 60, 62, 69, 71},
    {14, 15, 16, 31, 35, 48, 49},
    {5, 27, 41, 53, 61, 74, 84},
    {6, 34, 44, 72, 94, 98, 100},
    {3, 8, 18, 28, 32, 81, 100},
    {11, 37, 40, 60, 62, 64, 71},
    {21, 74, 77, 79, 91, 92, 93},
    {11, 37, 60, 62, 64, 69, 75},
    {6, 34, 43, 44, 67, 94, 98},
    {1, 7, 12, 20, 30, 59, 99},
    {5, 27, 61, 66, 77, 84, 93},
    {41, 45, 53, 55, 86, 87, 96},
    {34, 42, 43, 47, 63, 90, 98},
    {17, 27, 70, 74, 84, 91, 93},
    {2, 13, 24, 25, 47, 63, 97},
    {17, 57, 58, 70, 91, 92, 93},
    {26, 38, 57, 79, 85, 91, 92},
    {3, 32, 34, 43, 68, 98, 100},
    {10, 23, 26, 38, 83, 85, 88},
    {1, 10, 12, 23, 28, 35, 48, 88},
    {17, 19, 27, 58, 65, 66, 74, 93},
    {10, 21, 26, 38, 82, 83, 88},
    {22, 41, 53, 55, 87, 89, 96},
    {22, 36, 55, 75, 86, 89, 96},
    {1, 10, 12, 23, 35, 48, 83},
    {22, 41, 53, 55, 86, 87, 96},
    {14, 15, 39, 52, 63, 65, 76},
    {17, 57, 70, 77, 79, 92, 93},
    {17, 57, 58, 77, 79, 91, 93},
    {17, 27, 70, 74, 77, 84, 91},
    {6, 12, 34, 43, 44, 67, 72, 98},
    {6, 16, 29, 44, 52, 61, 72},
    {22, 36, 41, 55, 86, 87, 89},
    {2, 13, 24, 25, 39, 78, 99},
    {34, 42, 43, 72, 76, 94, 100},
    {2, 7, 20, 24, 30, 39, 97},
    {32, 34, 43, 67, 68, 81, 98}
];
