n = 50;
allowed = [
    {2, 3, 4, 13, 15, 21, 27, 29, 30, 32},
    {1, 3, 4, 13, 15, 21, 27, 29, 30, 32},
    {1, 2, 4, 14, 15, 21, 27, 30, 32, 46},
    {1, 3, 14, 15, 21, 22, 29, 30, 32, 46},
    {11, 13, 20, 28, 29, 35, 36, 37, 44, 48},
    {13, 17, 20, 35, 36, 42, 44, 45, 47, 50},
    {12, 19, 24, 25, 26, 27, 31, 38, 40, 41},
    {10, 16, 18, 19, 33, 34, 39, 43, 46, 49},
    {3, 4, 14, 16, 22, 30, 32, 37, 43, 46},
    {8, 18, 19, 24, 25, 26, 27, 33, 34, 49},
    {4, 5, 13, 21, 22, 28, 29, 32, 37, 48},
    {2, 7, 19, 24, 26, 27, 31, 40, 41, 50},
    {1, 5, 6, 15, 20, 21, 29, 32, 35, 44},
    {1, 3, 4, 9, 22, 30, 32, 37, 43, 46},
    {1, 2, 3, 4, 13, 18, 21, 27, 29, 30, 32},
    {3, 8, 10, 18, 33, 34, 39, 43, 46, 49},
    {6, 13, 20, 35, 36, 42, 44, 45, 47, 50},
    {8, 10, 16, 19, 24, 25, 33, 34, 39, 49},
    {7, 9, 10, 12, 24, 25, 26, 27, 31, 33, 41},
    {6, 13, 17, 28, 35, 36, 42, 44, 45, 48},
    {1, 2, 3, 4, 11, 13, 15, 29, 30, 32},
    {3, 4, 9, 11, 14, 21, 29, 30, 32, 37},
    {6, 7, 12, 31, 38, 40, 41, 45, 47, 50},
    {7, 10, 12, 19, 25, 26, 27, 31, 33, 41},
    {7, 10, 12, 19, 24, 26, 27, 31, 33, 41},
    {7, 10, 12, 19, 24, 25, 27, 31, 40, 41},
    {1, 2, 7, 12, 19, 24, 26, 30, 31, 41},
    {5, 6, 13, 17, 20, 35, 36, 42, 44, 48},
    {1, 2, 4, 5, 11, 13, 15, 21, 30, 32},
    {1, 2, 3, 4, 15, 21, 27, 29, 32, 46},
    {2, 7, 12, 19, 24, 25, 26, 27, 40, 41},
    {1, 2, 3, 4, 13, 15, 21, 29, 30, 46},
    {8, 10, 16, 18, 19, 24, 25, 34, 39, 49},
    {3, 8, 10, 16, 18, 33, 39, 43, 46, 49},
    {6, 13, 17, 20, 28, 36, 42, 44, 45, 48},
    {5, 6, 13, 17, 20, 26, 28, 35, 42, 44, 48},
    {4, 5, 9, 11, 14, 21, 22, 29, 30, 32},
    {7, 12, 23, 24, 25, 26, 31, 40, 41, 50},
    {3, 8, 10, 16, 18, 33, 34, 43, 46, 49},
    {7, 12, 23, 24, 26, 31, 32, 38, 41, 47, 50},
    {2, 7, 12, 23, 26, 27, 31, 40, 47, 50},
    {6, 17, 20, 28, 35, 36, 44, 45, 47, 48},
    {3, 8, 9, 10, 14, 16, 34, 39, 46, 49},
    {5, 6, 13, 17, 20, 28, 35, 36, 42, 48},
    {6, 13, 17, 20, 35, 36, 42, 44, 47, 50},
    {1, 3, 4, 9, 14, 27, 30, 32, 34, 43},
    {6, 12, 17, 20, 23, 35, 41, 42, 45, 50},
    {5, 11, 13, 20, 28, 29, 35, 36, 42, 44},
    {3, 8, 10, 16, 18, 33, 34, 39, 43, 46},
    {6, 12, 17, 20, 23, 35, 40, 41, 45, 47}
];
