n = 20;
allowed = [
    {2, 3, 5, 8, 10, 16, 17, 18, 19, 20},
    {1, 3, 5, 8, 10, 16, 17, 18, 19, 20},
    {1, 2, 5, 8, 10, 16, 17, 18, 19, 20},
    {1, 7, 8, 9, 10, 14, 15, 17, 18, 19},
    {1, 2, 3, 6, 8, 11, 12, 16, 18, 20},
    {1, 5, 7, 8, 11, 12, 13, 15, 16, 18},
    {1, 4, 6, 8, 9, 11, 12, 13, 15, 18},
    {1, 2, 3, 5, 7, 10, 13, 17, 18, 20},
    {4, 7, 8, 10, 11, 13, 14, 15, 18, 19},
    {1, 2, 3, 4, 8, 14, 17, 18, 19, 20},
    {1, 5, 6, 7, 8, 12, 13, 15, 16, 18},
    {1, 5, 6, 7, 8, 11, 13, 15, 16, 18},
    {1, 5, 6, 7, 8, 9, 11, 12, 15, 18},
    {1, 4, 8, 9, 10, 15, 17, 18, 19, 20},
    {1, 4, 7, 8, 9, 11, 12, 13, 14, 18},
    {1, 2, 3, 5, 8, 10, 11, 17, 18, 20},
    {1, 2, 3, 4, 8, 10, 14, 18, 19, 20},
    {1, 2, 3, 5, 7, 8, 10, 17, 19, 20},
    {1, 2, 3, 4, 8, 10, 14, 17, 18, 20},
    {1, 2, 3, 5, 8, 10, 16, 17, 18, 19}
];
