n = 20;
allowed = [
    {2, 4, 8, 10, 11, 12, 19},
    {1, 4, 6, 8, 11, 12, 16},
    {7, 9, 11, 13, 15, 16, 18},
    {1, 2, 6, 8, 10, 11, 12},
    {8, 9, 10, 12, 17, 19, 20},
    {2, 3, 4, 11, 15, 16, 18},
    {3, 9, 13, 14, 15, 17, 20},
    {1, 2, 4, 5, 10, 12, 19},
    {3, 7, 13, 14, 15, 17, 20},
    {1, 4, 5, 8, 11, 12, 19},
    {3, 6, 9, 12, 13, 15, 16},
    {1, 4, 5, 8, 10, 11, 19},
    {3, 7, 9, 11, 15, 16, 18},
    {3, 5, 7, 9, 13, 17, 20},
    {3, 6, 9, 11, 13, 16, 18},
    {3, 6, 9, 11, 13, 15, 18},
    {3, 5, 7, 9, 13, 14, 20},
    {3, 7, 9, 11, 13, 15, 16},
    {1, 4, 5, 8, 10, 11, 12},
    {3, 5, 7, 9, 13, 14, 17}
];
