n = 100;
allowed = [
    {14, 23, 40, 41, 64, 72, 78, 80, 87, 92},
    {6, 11, 13, 24, 31, 49, 83, 86, 88, 93},
    {12, 40, 46, 47, 50, 63, 72, 82, 84, 87},
    {6, 33, 48, 53, 60, 71, 86, 96, 97, 99},
    {20, 45, 55, 76, 79, 81, 85, 89, 90, 91},
    {4, 11, 15, 24, 33, 37, 53, 60, 86, 97},
    {15, 26, 33, 53, 54, 67, 71, 75, 99, 100},
    {3, 14, 19, 25, 47, 50, 68, 77, 84, 87},
    {1, 14, 17, 22, 23, 25, 32, 59, 64, 92},
    {16, 18, 21, 27, 28, 30, 34, 38, 89, 94},
    {2, 13, 24, 39, 48, 49, 60, 83, 86, 96},
    {3, 29, 46, 51, 56, 58, 63, 70, 73, 88},
    {2, 11, 24, 31, 39, 49, 60, 83, 86, 93},
    {1, 9, 17, 25, 59, 64, 72, 78, 87, 92},
    {6, 26, 33, 37, 51, 53, 54, 67, 97, 99},
    {10, 18, 21, 22, 27, 30, 32, 34, 38, 94},
    {1, 9, 14, 22, 25, 32, 59, 64, 66, 87, 92},
    {10, 16, 21, 27, 30, 32, 34, 38, 94, 95},
    {3, 8, 14, 25, 47, 50, 68, 76, 77, 84, 87},
    {5, 45, 55, 76, 79, 81, 85, 89, 90, 91},
    {10, 16, 18, 27, 28, 30, 34, 85, 89, 94},
    {9, 14, 17, 23, 25, 27, 32, 59, 64, 95},
    {1, 27, 32, 36, 41, 64, 78, 80, 92, 95},
    {2, 6, 11, 13, 31, 37, 49, 60, 86, 97},
    {1, 9, 14, 17, 22, 59, 64, 78, 87, 92},
    {7, 15, 33, 51, 54, 58, 67, 75, 99, 100},
    {18, 22, 23, 28, 30, 32, 36, 41, 64, 95},
    {21, 27, 30, 35, 36, 65, 81, 85, 89, 90},
    {12, 40, 51, 57, 58, 70, 72, 74, 75, 80},
    {10, 18, 21, 28, 34, 36, 85, 89, 90, 94},
    {2, 6, 11, 13, 24, 34, 37, 60, 86, 88, 93},
    {9, 17, 22, 23, 27, 41, 59, 64, 78, 95},
    {7, 15, 26, 53, 54, 67, 71, 97, 99, 100},
    {10, 16, 18, 21, 28, 30, 38, 85, 89, 94},
    {28, 36, 57, 65, 69, 74, 75, 90, 91, 98},
    {23, 27, 28, 30, 35, 41, 57, 65, 90, 95},
    {6, 15, 51, 53, 60, 67, 73, 86, 88, 97},
    {9, 10, 16, 18, 21, 22, 27, 32, 34, 94},
    {4, 11, 13, 24, 48, 49, 60, 83, 86, 96},
    {1, 29, 41, 58, 70, 72, 78, 80, 87, 92},
    {1, 23, 27, 36, 40, 64, 78, 80, 92, 95},
    {3, 46, 63, 66, 68, 73, 77, 82, 88, 93},
    {7, 44, 54, 61, 62, 69, 71, 98, 99, 100},
    {16, 43, 45, 52, 55, 61, 62, 69, 79, 91, 98},
    {5, 20, 44, 52, 55, 61, 69, 76, 79, 91},
    {3, 12, 42, 56, 63, 66, 73, 82, 88, 93},
    {3, 8, 14, 19, 25, 50, 68, 77, 84, 87},
    {4, 6, 11, 24, 39, 49, 60, 83, 86, 96},
    {2, 11, 13, 24, 39, 48, 60, 83, 86, 96},
    {3, 8, 14, 19, 47, 72, 77, 84, 87, 92},
    {15, 26, 37, 56, 67, 70, 73, 75, 88, 97},
    {5, 20, 44, 45, 55, 61, 62, 76, 79, 91},
    {6, 15, 33, 37, 54, 60, 71, 86, 97, 99},
    {7, 15, 26, 33, 43, 53, 67, 71, 99, 100},
    {5, 20, 44, 45, 61, 69, 76, 79, 91, 98},
    {12, 37, 41, 46, 51, 58, 63, 67, 70, 73, 88},
    {26, 29, 35, 58, 65, 69, 74, 75, 91, 98},
    {12, 26, 29, 40, 51, 57, 67, 70, 74, 75},
    {1, 9, 14, 17, 22, 23, 25, 32, 64, 92},
    {4, 6, 11, 15, 24, 33, 37, 53, 86, 97},
    {43, 44, 55, 62, 69, 71, 79, 91, 98, 100},
    {4, 43, 44, 52, 54, 61, 71, 79, 99, 100},
    {3, 12, 46, 51, 56, 66, 70, 73, 82, 88},
    {1, 9, 14, 17, 22, 23, 32, 59, 78, 92},
    {23, 28, 30, 35, 36, 41, 57, 74, 90, 95},
    {3, 42, 46, 56, 63, 68, 73, 82, 88, 93},
    {7, 15, 26, 33, 37, 51, 53, 54, 75, 97},
    {3, 8, 19, 42, 47, 50, 66, 77, 82, 84},
    {7, 35, 43, 55, 57, 61, 79, 91, 98, 100},
    {12, 29, 40, 51, 56, 58, 63, 67, 74, 75},
    {4, 7, 15, 26, 33, 43, 53, 54, 99, 100},
    {1, 14, 29, 40, 41, 49, 70, 78, 80, 87, 92},
    {12, 37, 46, 51, 56, 63, 67, 70, 88, 97},
    {7, 11, 26, 29, 35, 57, 58, 65, 69, 70, 75},
    {7, 26, 29, 35, 51, 57, 58, 67, 70, 74},
    {5, 20, 44, 45, 52, 55, 79, 81, 85, 91},
    {3, 8, 19, 42, 47, 50, 66, 68, 82, 84},
    {1, 14, 23, 40, 41, 64, 72, 80, 92, 95},
    {5, 43, 44, 45, 55, 61, 69, 76, 91, 98},
    {1, 14, 23, 29, 40, 41, 58, 72, 78, 92},
    {5, 20, 28, 30, 55, 76, 85, 89, 90, 91},
    {3, 12, 42, 46, 63, 66, 68, 73, 88, 93},
    {2, 11, 13, 24, 31, 39, 48, 49, 86, 96},
    {3, 8, 19, 42, 47, 50, 68, 77, 82, 87},
    {5, 20, 21, 28, 30, 34, 47, 81, 89, 90, 94},
    {4, 6, 11, 15, 24, 37, 48, 53, 60, 97},
    {1, 3, 14, 19, 25, 40, 47, 50, 72, 92},
    {6, 12, 31, 37, 46, 51, 56, 63, 73, 97},
    {5, 20, 21, 28, 30, 34, 81, 85, 90, 94},
    {28, 30, 35, 36, 57, 65, 81, 85, 89, 91},
    {35, 43, 44, 55, 57, 61, 69, 79, 90, 98},
    {1, 14, 25, 40, 41, 64, 72, 78, 80, 87},
    {2, 13, 24, 31, 42, 46, 66, 73, 82, 88},
    {10, 16, 18, 21, 28, 30, 34, 38, 85, 89},
    {1, 23, 27, 32, 36, 41, 64, 65, 78, 80},
    {4, 9, 11, 13, 24, 39, 48, 49, 60, 83, 86},
    {6, 15, 24, 33, 37, 51, 53, 60, 67, 86},
    {7, 35, 43, 55, 57, 59, 61, 69, 79, 91, 100},
    {7, 15, 26, 33, 43, 53, 54, 67, 71, 100},
    {7, 15, 26, 33, 43, 53, 54, 67, 71, 99}
];
