n = 100;
allowed = [
    {3, 23, 25, 41, 65, 91},
    {7, 10, 37, 45, 65},
    {1, 23, 41, 65, 91},
    {33, 51, 62, 72, 88},
    {17, 36, 52, 80, 98},
    {8, 12, 29, 48, 49, 54},
    {37, 45, 58, 60, 79},
    {6, 29, 48, 82, 90},
    {33, 36, 51, 52, 80},
    {2, 7, 30, 37, 45, 84},
    {4, 28, 44, 72, 93},
    {6, 22, 29, 54, 75},
    {27, 32, 34, 55, 76},
    {16, 26, 35, 50, 64},
    {18, 25, 68, 85, 89},
    {14, 26, 43, 60, 81},
    {5, 36, 52, 80, 98},
    {15, 25, 57, 68, 89},
    {24, 46, 61, 90, 100},
    {56, 63, 83, 84, 99},
    {44, 49, 51, 85, 88},
    {12, 54, 59, 75, 92},
    {1, 39, 41, 65, 91},
    {19, 46, 61, 82, 90},
    {15, 18, 68, 69, 89},
    {14, 35, 43, 64, 77},
    {13, 32, 34, 55, 76},
    {11, 30, 31, 75, 79, 93},
    {6, 8, 12, 54, 66},
    {31, 37, 74, 79, 93},
    {10, 28, 30, 79, 93},
    {13, 27, 34, 55, 76},
    {4, 9, 51, 52, 62},
    {13, 27, 32, 55, 76},
    {14, 26, 64, 92, 97},
    {5, 9, 17, 52, 80},
    {7, 45, 58, 60, 79},
    {20, 42, 63, 70, 84},
    {3, 23, 41, 65, 91},
    {43, 77, 94, 95, 97},
    {1, 3, 23, 65, 91},
    {20, 38, 63, 70, 84},
    {26, 40, 73, 77, 94},
    {4, 21, 67, 72, 88},
    {2, 7, 37, 58, 60},
    {19, 24, 61, 82, 90},
    {59, 69, 75, 87, 96},
    {6, 35, 54, 92, 97},
    {21, 50, 73, 85, 88, 96},
    {14, 16, 26, 58, 64, 78},
    {9, 33, 52, 62, 88},
    {9, 33, 36, 80, 98},
    {42, 70, 71, 78, 86},
    {6, 22, 48, 92, 97},
    {13, 27, 32, 34, 76},
    {20, 24, 57, 83, 84, 99},
    {56, 68, 69, 83, 99},
    {7, 37, 45, 60, 74},
    {22, 47, 75, 87, 96},
    {7, 37, 58, 74, 79},
    {19, 24, 46, 90, 100},
    {4, 23, 33, 51, 72, 88},
    {20, 38, 42, 70, 84},
    {14, 16, 26, 35, 50},
    {10, 23, 39, 41, 91},
    {6, 12, 29, 61, 100},
    {2, 16, 44, 72, 73, 81},
    {15, 18, 25, 69, 74, 89},
    {25, 47, 57, 68, 89},
    {38, 42, 53, 63, 84},
    {53, 75, 78, 86, 87},
    {4, 44, 51, 62, 88},
    {34, 40, 43, 77, 94, 96},
    {30, 37, 58, 60, 79},
    {12, 22, 59, 71, 87},
    {13, 16, 27, 32, 34, 55},
    {26, 40, 43, 94, 95},
    {53, 63, 71, 86, 87},
    {7, 30, 37, 60, 74},
    {5, 17, 36, 52, 98},
    {16, 26, 46, 58, 60, 74},
    {8, 13, 24, 32, 67, 90},
    {18, 20, 56, 57, 99},
    {20, 38, 42, 63, 70},
    {21, 49, 51, 62, 88},
    {53, 71, 75, 78, 87},
    {47, 56, 71, 75, 78, 86},
    {4, 21, 51, 62, 72},
    {15, 18, 25, 68, 69},
    {8, 24, 29, 61, 82},
    {1, 3, 23, 41, 65},
    {11, 35, 48, 54, 95, 97},
    {28, 30, 31, 74, 79},
    {40, 43, 73, 77, 95},
    {40, 43, 77, 92, 97},
    {40, 73, 77, 94, 95},
    {35, 40, 54, 92, 95},
    {5, 17, 36, 52, 80, 90},
    {20, 56, 57, 63, 83},
    {6, 19, 29, 61, 66}
];
