n = 100;
allowed = [
    {42, 54, 63, 89},
    {32, 34, 90, 93},
    {4, 28, 47, 66},
    {3, 28, 47, 53},
    {35, 71, 76, 100},
    {23, 35, 74, 84},
    {17, 25, 77, 79},
    {12, 20, 57, 62, 96},
    {47, 53, 57, 85, 95},
    {14, 38, 40, 82},
    {12, 19, 29, 34, 37},
    {11, 19, 37, 62},
    {19, 20, 37, 62},
    {38, 56, 64, 83, 88},
    {21, 39, 41, 44},
    {26, 59, 65, 87},
    {7, 25, 77, 79, 91},
    {28, 51, 74, 98},
    {11, 12, 34, 37},
    {12, 13, 37, 62},
    {15, 41, 43, 93},
    {30, 46, 48, 89},
    {6, 51, 74, 84},
    {25, 27, 42, 95},
    {7, 24, 77, 79},
    {16, 59, 60, 65},
    {24, 55, 81, 95},
    {3, 4, 66, 73},
    {25, 53, 66, 67},
    {22, 46, 48, 69},
    {8, 64, 76, 96},
    {2, 34, 90, 93},
    {47, 78, 85, 99},
    {11, 12, 19, 37},
    {5, 6, 84, 100},
    {56, 70, 83, 88, 91},
    {11, 13, 19, 62},
    {10, 14, 82, 83},
    {15, 44, 56, 88},
    {10, 38, 52, 53, 97},
    {15, 21, 43, 93},
    {1, 46, 54, 63},
    {41, 49, 59, 72},
    {1, 39, 56, 88},
    {28, 52, 66, 73, 77},
    {22, 38, 42, 63, 89},
    {3, 4, 33, 53},
    {22, 30, 46, 81},
    {16, 43, 59, 72},
    {55, 61, 68, 81},
    {18, 23, 74, 98},
    {10, 38, 40, 82},
    {3, 4, 47, 67},
    {1, 24, 35, 42, 63},
    {27, 50, 61, 81},
    {36, 44, 83, 88},
    {9, 50, 68, 85},
    {36, 80, 90, 91, 93},
    {16, 49, 72, 87},
    {26, 35, 65, 71},
    {27, 50, 55, 68, 81},
    {12, 13, 20, 37},
    {1, 42, 54, 89},
    {71, 75, 76, 86},
    {16, 26, 60, 87},
    {3, 28, 67, 73},
    {29, 53, 66, 77},
    {32, 50, 55, 57, 61},
    {22, 30, 46, 82},
    {5, 35, 58, 84, 100},
    {5, 64, 76, 100},
    {42, 43, 49, 59, 92},
    {28, 45, 66, 77},
    {18, 23, 51, 84},
    {71, 76, 86, 94},
    {64, 71, 75, 86},
    {7, 17, 25, 79},
    {33, 47, 85, 99},
    {7, 17, 25, 77},
    {11, 32, 34, 37, 92},
    {50, 55, 61, 95},
    {10, 38, 69, 89},
    {14, 56, 88, 97},
    {6, 23, 35, 74},
    {9, 33, 47, 57},
    {71, 75, 76, 94},
    {16, 17, 59, 65},
    {39, 44, 56, 83},
    {1, 22, 46, 63},
    {2, 32, 85, 91, 93},
    {36, 58, 90, 93},
    {43, 49, 59, 72},
    {2, 21, 41, 90},
    {1, 71, 75, 76, 86},
    {24, 27, 36, 55, 81},
    {8, 12, 31, 62},
    {14, 38, 56, 83},
    {18, 28, 51, 74, 96},
    {4, 33, 47, 78, 84},
    {5, 35, 62, 71, 75}
];
