n = 50;
allowed = [
    {9, 14, 17, 22, 23, 25, 32, 40, 41, 50},
    {6, 11, 13, 24, 31, 37, 39, 46, 48, 49},
    {1, 5, 8, 12, 19, 29, 40, 42, 46, 47, 50},
    {6, 7, 11, 15, 24, 33, 37, 39, 48, 49},
    {20, 21, 28, 30, 34, 35, 36, 43, 44, 45},
    {2, 4, 11, 13, 15, 24, 31, 33, 37, 48},
    {4, 6, 15, 26, 29, 33, 35, 37, 43, 44},
    {1, 3, 14, 17, 19, 25, 40, 42, 47, 50},
    {1, 14, 17, 18, 22, 23, 25, 27, 32, 41},
    {16, 18, 21, 27, 28, 30, 32, 34, 36, 38},
    {2, 4, 6, 13, 24, 31, 37, 39, 48, 49},
    {1, 3, 15, 26, 29, 37, 40, 42, 46, 50},
    {2, 4, 6, 11, 24, 31, 37, 39, 48, 49},
    {1, 9, 11, 17, 22, 23, 25, 32, 40, 41, 50},
    {4, 6, 7, 12, 24, 26, 29, 33, 37, 43},
    {9, 10, 18, 21, 22, 27, 30, 32, 34, 38},
    {1, 9, 14, 22, 23, 25, 27, 32, 40, 41},
    {10, 16, 21, 27, 28, 30, 32, 34, 36, 38},
    {1, 3, 8, 14, 17, 25, 40, 42, 47, 50},
    {5, 21, 28, 30, 34, 35, 36, 43, 44, 45},
    {10, 16, 18, 27, 28, 30, 32, 34, 36, 38},
    {1, 9, 14, 17, 18, 23, 25, 27, 32, 41},
    {1, 9, 14, 18, 22, 27, 32, 36, 40, 41},
    {2, 6, 11, 13, 15, 31, 37, 39, 48, 49},
    {1, 9, 14, 17, 19, 22, 23, 32, 47, 50},
    {4, 6, 7, 12, 15, 29, 33, 35, 37, 43},
    {10, 18, 21, 22, 23, 28, 30, 32, 36, 41},
    {10, 18, 21, 23, 27, 30, 34, 35, 36, 41},
    {1, 3, 7, 12, 15, 26, 33, 35, 40, 41},
    {10, 16, 18, 21, 23, 27, 28, 34, 36, 41},
    {2, 6, 11, 13, 15, 24, 37, 42, 46, 49},
    {1, 9, 14, 17, 18, 22, 23, 25, 27, 41},
    {4, 6, 7, 15, 24, 26, 29, 35, 37, 43},
    {10, 16, 18, 21, 27, 28, 30, 32, 36, 38},
    {7, 26, 28, 29, 30, 33, 36, 40, 41, 43},
    {10, 18, 21, 23, 27, 28, 30, 32, 35, 41},
    {2, 4, 6, 7, 11, 15, 24, 26, 31, 33},
    {9, 10, 16, 18, 21, 22, 27, 30, 32, 34, 47},
    {2, 4, 6, 11, 13, 24, 31, 37, 48, 49},
    {1, 3, 12, 14, 23, 25, 29, 36, 41, 50},
    {1, 14, 22, 23, 27, 28, 29, 32, 36, 40},
    {2, 3, 12, 19, 24, 31, 37, 46, 47, 50},
    {4, 6, 7, 15, 26, 33, 35, 37, 44, 45},
    {4, 5, 7, 15, 20, 26, 33, 35, 43, 45},
    {5, 7, 20, 26, 28, 30, 35, 36, 39, 43, 44},
    {2, 3, 6, 12, 15, 24, 29, 31, 37, 42},
    {1, 3, 8, 14, 17, 19, 25, 40, 42, 50},
    {2, 4, 6, 11, 13, 24, 31, 37, 39, 49},
    {2, 4, 6, 11, 13, 24, 31, 37, 39, 43, 48},
    {1, 3, 8, 12, 14, 19, 25, 40, 46, 47}
];
