n = 100;
allowed = [
    {11, 22, 41, 62, 71, 82, 84},
    {24, 29, 34, 50, 55, 56, 60},
    {27, 49, 65, 66, 74, 77, 81},
    {5, 8, 42, 44, 47, 51, 78},
    {4, 6, 33, 42, 44, 47, 88},
    {5, 19, 30, 33, 67, 80, 88},
    {12, 14, 38, 43, 57, 70, 87},
    {4, 21, 42, 44, 47, 79, 96},
    {18, 27, 49, 54, 74, 77, 81},
    {7, 12, 38, 46, 57, 59, 92},
    {1, 21, 43, 53, 71, 84, 100},
    {10, 14, 38, 46, 57, 59, 92},
    {27, 30, 65, 66, 80, 89, 95},
    {7, 26, 38, 43, 83, 86, 87},
    {23, 28, 37, 48, 52, 73, 91, 97},
    {2, 24, 34, 46, 60, 70, 75},
    {20, 26, 53, 83, 86, 93, 100},
    {9, 27, 49, 66, 74, 77, 88},
    {5, 6, 33, 42, 51, 67, 78},
    {17, 26, 43, 53, 83, 86, 93},
    {8, 11, 44, 47, 79, 84, 96},
    {1, 40, 41, 58, 62, 71, 82},
    {9, 15, 37, 49, 52, 73, 97},
    {2, 16, 34, 46, 60, 70, 75},
    {29, 31, 45, 55, 64, 68, 75, 76},
    {14, 17, 20, 43, 53, 83, 86},
    {3, 18, 49, 66, 74, 77, 81},
    {2, 29, 45, 50, 55, 56, 98},
    {2, 25, 45, 55, 64, 75, 98},
    {6, 13, 33, 69, 80, 85, 95},
    {25, 29, 32, 68, 75, 76, 94},
    {25, 31, 68, 75, 76, 91, 94},
    {6, 19, 30, 42, 51, 67, 78},
    {2, 7, 16, 24, 46, 60, 70},
    {2, 50, 52, 54, 56, 61, 72},
    {13, 30, 69, 80, 85, 89, 95},
    {9, 23, 49, 52, 54, 73, 81},
    {7, 12, 14, 43, 46, 57, 87},
    {10, 12, 59, 90, 91, 92, 93},
    {1, 21, 22, 62, 71, 82, 99, 100},
    {1, 22, 58, 62, 71, 79, 84},
    {4, 5, 19, 44, 47, 51, 78},
    {7, 14, 20, 26, 53, 83, 87},
    {4, 5, 8, 21, 42, 47, 79},
    {28, 29, 50, 55, 63, 64, 98},
    {10, 12, 16, 34, 38, 57, 92},
    {4, 5, 8, 42, 44, 51, 78},
    {15, 28, 45, 63, 64, 97, 98},
    {9, 18, 27, 66, 74, 77, 81},
    {2, 28, 29, 35, 45, 55, 56, 58},
    {4, 19, 33, 42, 47, 67, 78},
    {9, 35, 50, 54, 56, 61, 73},
    {11, 17, 20, 26, 43, 83, 100},
    {9, 18, 35, 49, 52, 61, 74},
    {2, 25, 29, 45, 64, 75, 98},
    {2, 28, 35, 50, 52, 55, 61},
    {7, 10, 12, 14, 38, 46, 92},
    {1, 22, 41, 44, 62, 71, 78, 84},
    {12, 57, 83, 86, 90, 92, 93},
    {2, 7, 16, 20, 24, 34, 46, 70},
    {9, 35, 52, 54, 56, 70, 72},
    {1, 22, 41, 58, 71, 82, 84},
    {28, 29, 45, 48, 55, 64, 98},
    {25, 29, 45, 55, 63, 75, 98},
    {3, 13, 27, 66, 80, 89, 95},
    {13, 27, 65, 74, 77, 89, 95},
    {5, 6, 19, 33, 42, 51, 78},
    {10, 31, 32, 39, 91, 92, 94},
    {6, 19, 30, 33, 36, 80, 85},
    {7, 16, 24, 34, 60, 72, 96},
    {1, 11, 22, 41, 62, 82, 84},
    {24, 35, 37, 56, 60, 61, 70, 96},
    {9, 15, 23, 37, 52, 54, 97},
    {9, 18, 27, 49, 66, 77, 81},
    {16, 24, 25, 29, 31, 55, 76},
    {25, 29, 31, 32, 55, 64, 75},
    {3, 18, 27, 49, 66, 74, 81},
    {4, 19, 33, 42, 47, 51, 67},
    {4, 8, 21, 44, 47, 84, 96},
    {13, 30, 65, 66, 85, 89, 95},
    {3, 18, 27, 39, 49, 66, 74, 77},
    {1, 22, 40, 62, 71, 99, 100},
    {14, 20, 26, 59, 86, 87, 93},
    {1, 11, 21, 23, 41, 62, 71, 79},
    {13, 30, 36, 57, 69, 80, 89, 95},
    {12, 14, 20, 26, 59, 83, 93},
    {7, 14, 26, 38, 43, 57, 83},
    {5, 6, 18, 27, 30, 66, 74},
    {3, 13, 27, 65, 66, 80, 95},
    {10, 12, 17, 39, 59, 86, 92, 93},
    {10, 32, 39, 68, 90, 92, 94},
    {10, 12, 39, 46, 57, 59, 90},
    {12, 20, 26, 59, 83, 86, 90},
    {31, 32, 39, 50, 68, 90, 91, 92},
    {13, 30, 65, 66, 80, 85, 89},
    {7, 21, 43, 70, 72, 79, 87},
    {15, 23, 28, 37, 48, 63, 73},
    {28, 29, 45, 48, 52, 55, 63, 64},
    {1, 11, 17, 40, 53, 82, 100},
    {11, 17, 20, 26, 40, 53, 99}
];
