n = 20;
allowed = [
    {3, 9, 12, 14, 17},
    {4, 6, 11, 13, 15},
    {1, 8, 12, 14, 19},
    {6, 7, 11, 13, 15},
    {7, 10, 16, 18, 20},
    {2, 4, 11, 13, 15},
    {4, 6, 11, 12, 15},
    {1, 3, 14, 17, 19},
    {1, 14, 16, 17, 18},
    {5, 9, 16, 18, 20},
    {2, 4, 6, 13, 15},
    {1, 3, 5, 6, 7, 15},
    {2, 4, 6, 8, 11, 15},
    {1, 3, 9, 17, 19},
    {4, 6, 7, 11, 12},
    {1, 9, 10, 17, 18, 20},
    {1, 8, 9, 14, 19},
    {1, 9, 10, 16, 17},
    {1, 3, 8, 14, 17},
    {2, 5, 7, 10, 16, 18}
];
