n = 100;
allowed = [
    {51, 61, 73, 77},
    {20, 42, 64, 89},
    {15, 35, 50, 53},
    {23, 32, 47, 75},
    {18, 63, 76, 90},
    {30, 49, 81, 89},
    {10, 46, 62, 91},
    {28, 34, 55, 84},
    {61, 80, 87, 88},
    {7, 42, 46, 91},
    {31, 65, 67, 99},
    {6, 24, 30, 34, 42},
    {17, 67, 70, 76, 100},
    {22, 29, 57, 85},
    {3, 33, 53, 83},
    {22, 39, 54, 68},
    {13, 31, 67, 100},
    {5, 39, 66, 90},
    {25, 41, 49, 81},
    {52, 62, 64, 93},
    {27, 42, 48, 59, 86},
    {29, 68, 71, 85},
    {4, 25, 32, 47},
    {6, 12, 30, 49},
    {19, 23, 32, 48},
    {45, 83, 84, 100},
    {47, 59, 60, 86},
    {15, 53, 55, 83},
    {14, 22, 57, 85, 94},
    {6, 69, 81, 89},
    {45, 58, 65, 67},
    {4, 23, 25, 79},
    {15, 54, 70, 92, 96},
    {4, 8, 55, 75},
    {3, 44, 50, 53},
    {38, 39, 66, 72, 93},
    {65, 77, 78, 99},
    {19, 21, 24, 25, 48},
    {66, 72, 74, 98},
    {34, 43, 75, 88},
    {19, 49, 81, 95},
    {2, 12, 30, 64},
    {34, 40, 75, 88},
    {3, 50, 53, 56},
    {26, 31, 70, 100},
    {7, 10, 11, 42, 91},
    {23, 27, 59, 60},
    {16, 25, 27, 59, 60},
    {6, 19, 41, 81},
    {3, 35, 44, 56},
    {1, 37, 73, 77},
    {20, 66, 74, 93, 98},
    {3, 15, 44, 50},
    {13, 33, 70, 96},
    {8, 28, 53, 83},
    {14, 44, 50, 69, 95},
    {14, 22, 29, 85},
    {31, 65, 67, 82},
    {27, 47, 48, 60},
    {27, 47, 48, 59},
    {1, 9, 87, 88},
    {7, 20, 52, 93},
    {5, 14, 57, 76},
    {2, 20, 42, 89},
    {31, 58, 78, 99},
    {18, 39, 72, 90},
    {17, 31, 58, 65},
    {16, 22, 29, 85},
    {30, 79, 89, 95},
    {17, 33, 45, 100},
    {11, 22, 29, 85, 96},
    {24, 39, 66, 74, 98},
    {1, 9, 51, 80},
    {52, 72, 93, 98},
    {4, 23, 34, 43},
    {5, 14, 57, 63},
    {65, 78, 97, 99},
    {77, 82, 97, 99},
    {41, 56, 69, 95},
    {9, 61, 73, 88},
    {6, 19, 39, 41, 49},
    {58, 78, 84, 97},
    {15, 26, 28, 84},
    {6, 26, 45, 82, 83},
    {14, 22, 29, 57},
    {21, 27, 59, 94},
    {9, 61, 80, 88},
    {9, 61, 80, 87},
    {6, 30, 69, 95},
    {5, 10, 18, 39, 66},
    {7, 10, 42, 46},
    {27, 47, 60, 94, 97},
    {20, 52, 62, 74},
    {21, 27, 86, 92},
    {41, 69, 79, 81},
    {33, 35, 54, 70},
    {36, 58, 77, 78, 82},
    {39, 52, 72, 74},
    {37, 65, 71, 77, 78},
    {17, 26, 45, 70}
];
