n = 100;
allowed = [
    {15, 32, 68},
    {1, 15, 62, 72},
    {46, 64, 87},
    {54, 71, 86, 93},
    {11, 48, 70},
    {2, 17, 20, 35},
    {12, 31, 41},
    {39, 83, 88},
    {14, 53, 54},
    {69, 74, 100},
    {5, 37, 70},
    {7, 31, 41},
    {29, 60, 75},
    {9, 54, 71},
    {1, 21, 68, 94},
    {39, 49, 83},
    {6, 35, 45},
    {33, 90, 91, 98},
    {24, 26, 85},
    {13, 35, 56, 97},
    {15, 32, 68},
    {37, 50, 66, 99},
    {40, 76, 94},
    {19, 26, 85},
    {24, 26, 55},
    {19, 24, 85, 99},
    {31, 63, 65},
    {36, 44, 48},
    {28, 51, 75, 96},
    {1, 17, 32, 68},
    {7, 12, 27},
    {1, 21, 45, 68},
    {18, 90, 91},
    {49, 57, 67},
    {20, 56, 97},
    {8, 44, 52, 61},
    {22, 66, 99},
    {58, 77, 92},
    {16, 49, 83},
    {58, 78, 94},
    {7, 12, 78},
    {61, 89, 97},
    {16, 49, 53},
    {36, 52, 61},
    {17, 47, 59},
    {3, 53, 78, 87},
    {30, 45, 50, 59},
    {28, 32, 36, 44},
    {16, 39, 83, 87},
    {47, 59, 76},
    {29, 75, 96},
    {36, 44, 61},
    {43, 46, 87},
    {9, 14, 71},
    {24, 25, 26},
    {20, 35, 97},
    {34, 49, 67, 81},
    {40, 92, 95},
    {45, 47, 50},
    {13, 29, 55, 75},
    {36, 52, 89},
    {58, 92, 95},
    {64, 65, 84},
    {3, 63, 84},
    {2, 63, 64},
    {22, 37, 99},
    {34, 57, 82},
    {1, 21, 32},
    {10, 90, 100},
    {5, 11, 48},
    {22, 93, 99},
    {1, 2, 15},
    {29, 51, 79, 96},
    {10, 67, 82},
    {29, 51, 96},
    {23, 50, 70, 78},
    {38, 73, 92, 94},
    {41, 50, 76},
    {33, 90, 91},
    {73, 86, 96},
    {4, 8, 88, 100},
    {3, 10, 67, 74},
    {8, 39, 88},
    {3, 63, 64, 72},
    {19, 24, 26},
    {4, 80, 93},
    {3, 14, 46},
    {8, 39, 69, 83},
    {42, 61, 98},
    {33, 79, 91},
    {18, 33, 90},
    {38, 58, 95},
    {4, 86, 99},
    {23, 40, 78},
    {34, 58, 62, 92},
    {29, 51, 73},
    {35, 52, 61},
    {52, 61, 89},
    {66, 71, 93},
    {10, 69, 81}
];
