n = 100;
allowed = [
    {3, 16, 17, 51, 92},
    {24, 27, 28, 52, 90},
    {1, 16, 17, 81, 92},
    {39, 43, 49, 50, 83},
    {53, 67, 81, 84, 85},
    {31, 33, 66, 70, 72},
    {37, 61, 65, 78, 98},
    {12, 30, 35, 71, 73},
    {19, 25, 41, 88, 94},
    {16, 76, 85, 92, 96},
    {22, 34, 48, 54, 77},
    {8, 60, 71, 73, 100},
    {33, 40, 46, 54, 56},
    {31, 39, 49, 61, 83, 99},
    {67, 74, 81, 89, 97},
    {1, 3, 17, 81, 92},
    {1, 3, 16, 81, 92},
    {21, 60, 64, 68, 100},
    {9, 25, 41, 57, 88, 94},
    {32, 44, 55, 59, 85},
    {13, 18, 40, 46, 56},
    {11, 48, 54, 56, 60},
    {24, 30, 47, 91, 95},
    {2, 23, 27, 47, 95},
    {32, 41, 55, 88, 94},
    {6, 31, 33, 66, 70},
    {2, 24, 28, 52, 90},
    {2, 24, 27, 52, 69},
    {38, 49, 80, 93, 99},
    {23, 24, 35, 47, 95},
    {6, 33, 39, 70, 72},
    {25, 41, 55, 75, 94},
    {6, 13, 31, 46, 66},
    {11, 26, 52, 54, 66, 77},
    {8, 30, 47, 68, 69},
    {1, 3, 64, 91, 92},
    {38, 62, 63, 65, 98},
    {29, 37, 49, 65, 93},
    {4, 14, 31, 43, 72},
    {13, 33, 46, 56, 72},
    {25, 32, 55, 88, 94},
    {15, 58, 63, 74, 82},
    {4, 39, 40, 46, 72},
    {20, 22, 59, 75, 85, 90},
    {7, 58, 61, 78, 82},
    {13, 21, 26, 33, 40, 56},
    {23, 24, 30, 35, 95},
    {22, 54, 56, 60, 71},
    {29, 38, 83, 93, 99},
    {4, 38, 62, 65, 87},
    {1, 3, 18, 36, 43},
    {2, 27, 28, 59, 90, 95},
    {5, 15, 67, 79, 97},
    {13, 33, 40, 46, 56, 82},
    {25, 32, 41, 88, 94},
    {13, 21, 40, 46, 54},
    {53, 79, 84, 86, 88},
    {42, 45, 61, 63, 82},
    {20, 27, 44, 75, 90},
    {12, 22, 48, 71, 100},
    {7, 44, 45, 58, 78, 98},
    {37, 50, 63, 65, 87},
    {37, 42, 62, 65, 74},
    {18, 36, 50, 68, 91, 100},
    {7, 37, 38, 62, 90, 98},
    {6, 26, 31, 33, 70},
    {5, 15, 53, 81, 97},
    {18, 64, 73, 91, 100},
    {24, 28, 30, 35, 47, 77},
    {6, 26, 31, 33, 66},
    {12, 22, 48, 60, 73},
    {6, 31, 39, 40, 43},
    {8, 12, 60, 71, 100},
    {15, 42, 82, 89, 97},
    {32, 41, 44, 59, 90},
    {10, 85, 90, 92, 96},
    {11, 22, 34, 48, 54},
    {7, 45, 58, 61, 98},
    {53, 57, 67, 84, 86},
    {29, 49, 56, 83, 93, 99},
    {15, 16, 17, 89, 97},
    {9, 15, 42, 58, 63, 74},
    {14, 29, 49, 93, 99},
    {5, 53, 57, 79, 86},
    {10, 20, 44, 76, 96},
    {55, 57, 79, 84, 88},
    {17, 50, 62, 81, 89},
    {25, 41, 55, 86, 94},
    {15, 74, 81, 87, 97},
    {2, 27, 44, 59, 96},
    {23, 36, 64, 68, 95},
    {3, 10, 16, 17, 76},
    {29, 38, 49, 80, 99},
    {9, 25, 41, 55, 88},
    {23, 24, 30, 47, 91, 96},
    {10, 44, 65, 76, 85, 90},
    {15, 60, 67, 74, 81, 89},
    {7, 37, 38, 65, 93},
    {29, 49, 80, 83, 93},
    {18, 60, 64, 68, 73}
];
