n = 30;
allowed = [
    {9, 14, 17, 23, 25},
    {6, 11, 13, 15, 24},
    {1, 8, 12, 19, 29},
    {6, 7, 11, 15, 24},
    {10, 20, 21, 28, 30},
    {4, 11, 13, 15, 24},
    {4, 6, 15, 26, 29},
    {1, 3, 5, 14, 19, 25},
    {14, 17, 22, 23, 25},
    {16, 18, 21, 27, 30},
    {2, 4, 6, 13, 24, 26},
    {1, 3, 15, 26, 29},
    {2, 4, 6, 11, 24},
    {1, 9, 17, 23, 25},
    {4, 6, 7, 24, 26},
    {10, 18, 21, 22, 27, 30},
    {1, 9, 14, 22, 25},
    {10, 16, 21, 27, 30},
    {1, 3, 8, 14, 25},
    {5, 10, 16, 21, 28, 30},
    {10, 16, 18, 28, 30},
    {9, 14, 17, 23, 27},
    {1, 9, 14, 20, 22, 27},
    {2, 6, 11, 13, 15},
    {1, 2, 9, 14, 17, 22},
    {6, 7, 12, 15, 23, 29},
    {18, 22, 23, 28, 30},
    {4, 10, 18, 21, 27, 30},
    {1, 7, 12, 15, 26},
    {10, 18, 21, 27, 28}
];
