n = 30;
allowed = [
    {9, 12, 23},
    {4, 11, 17},
    {2, 7, 13, 20},
    {11, 19, 21, 28},
    {6, 9, 12},
    {5, 9, 29},
    {13, 14, 20},
    {15, 16, 21, 24},
    {5, 6, 23},
    {18, 27, 28},
    {4, 19, 29},
    {1, 5, 23},
    {7, 14, 22},
    {7, 13, 16, 20},
    {8, 16, 21},
    {8, 15, 21},
    {2, 11, 29, 30},
    {10, 25, 27},
    {4, 11, 29},
    {7, 14, 26},
    {8, 15, 16},
    {3, 12, 13},
    {1, 5, 9, 26},
    {10, 18, 28},
    {9, 10, 18, 27},
    {3, 20, 24},
    {10, 18, 25},
    {10, 17, 18, 24},
    {6, 11, 19},
    {11, 14, 19, 29}
];
