n = 30;
allowed = [
    {2, 3, 4, 12, 13, 15, 21, 27, 29, 30},
    {1, 3, 4, 12, 13, 15, 21, 27, 29, 30},
    {1, 2, 4, 9, 14, 15, 21, 27, 29, 30},
    {1, 2, 3, 9, 14, 15, 21, 22, 29, 30},
    {1, 6, 11, 13, 15, 17, 20, 21, 28, 29},
    {1, 2, 12, 13, 15, 17, 20, 21, 28, 29},
    {2, 10, 12, 15, 19, 23, 24, 25, 26, 27},
    {3, 9, 10, 16, 18, 19, 24, 25, 26, 27},
    {1, 2, 3, 4, 14, 15, 16, 21, 22, 30},
    {3, 7, 8, 16, 18, 19, 24, 25, 26, 27},
    {1, 4, 5, 13, 15, 21, 22, 28, 29, 30},
    {1, 2, 6, 7, 15, 19, 23, 24, 26, 27},
    {1, 2, 5, 6, 11, 15, 20, 21, 28, 29},
    {1, 2, 3, 4, 9, 15, 21, 22, 29, 30},
    {1, 2, 3, 4, 6, 13, 21, 27, 29, 30},
    {3, 4, 8, 9, 10, 14, 18, 19, 23, 27, 30},
    {2, 5, 6, 12, 13, 15, 20, 21, 28, 29},
    {3, 7, 8, 10, 16, 19, 24, 25, 26, 27},
    {2, 3, 7, 10, 12, 18, 24, 25, 26, 27},
    {1, 2, 5, 6, 13, 15, 17, 21, 28, 29},
    {1, 2, 3, 4, 11, 13, 15, 27, 29, 30},
    {1, 3, 4, 9, 11, 14, 15, 21, 29, 30},
    {6, 7, 12, 17, 19, 20, 22, 24, 25, 26, 27},
    {2, 3, 7, 10, 12, 18, 19, 25, 26, 27},
    {7, 8, 10, 12, 18, 19, 23, 24, 26, 27},
    {2, 7, 10, 12, 18, 19, 24, 25, 27, 30},
    {1, 2, 3, 7, 10, 12, 19, 24, 26, 30},
    {1, 5, 6, 11, 13, 15, 17, 20, 21, 29},
    {1, 2, 4, 5, 11, 13, 15, 20, 21, 30},
    {1, 2, 3, 4, 13, 14, 15, 21, 27, 29}
];
