n = 100;
allowed = [
    {20, 29, 43, 47, 48, 56, 76, 80, 81, 86},
    {17, 18, 35, 50, 51, 55, 60, 61, 84, 95},
    {6, 13, 21, 26, 33, 39, 49, 64, 68, 93},
    {19, 22, 36, 41, 59, 72, 78, 87, 90, 97},
    {11, 14, 40, 43, 70, 80, 86, 88, 92, 98},
    {3, 13, 21, 26, 33, 39, 61, 64, 68, 79, 100},
    {40, 43, 46, 52, 54, 71, 88, 91, 96, 99},
    {23, 30, 34, 41, 53, 58, 69, 77, 78, 90},
    {13, 15, 16, 25, 27, 47, 66, 75, 81, 100},
    {11, 24, 28, 32, 42, 44, 65, 82, 83, 94},
    {5, 10, 14, 24, 28, 70, 73, 83, 92, 98},
    {17, 28, 38, 42, 70, 80, 89, 92, 94, 95},
    {3, 6, 9, 16, 21, 27, 39, 64, 79, 100},
    {5, 11, 24, 40, 70, 73, 88, 92, 96, 98},
    {9, 23, 31, 34, 45, 47, 66, 67, 76, 81},
    {9, 13, 15, 47, 48, 56, 64, 66, 81, 100},
    {2, 12, 18, 42, 50, 55, 61, 89, 94, 95},
    {2, 17, 35, 42, 50, 55, 60, 61, 94, 95},
    {4, 8, 22, 36, 41, 69, 72, 87, 90, 97},
    {1, 29, 38, 43, 48, 56, 64, 80, 86, 92},
    {3, 6, 13, 26, 33, 39, 49, 64, 68, 93},
    {4, 19, 36, 41, 59, 72, 78, 87, 90, 97},
    {30, 31, 34, 45, 58, 67, 69, 76, 77, 90},
    {10, 11, 14, 28, 32, 37, 65, 73, 82, 83},
    {9, 15, 16, 27, 63, 66, 75, 79, 81, 100},
    {3, 6, 21, 33, 38, 39, 49, 64, 68, 93},
    {6, 9, 13, 16, 25, 39, 63, 75, 79, 100},
    {10, 11, 24, 32, 42, 44, 65, 82, 83, 94},
    {1, 20, 43, 47, 48, 56, 64, 80, 81, 86},
    {8, 23, 31, 34, 45, 58, 67, 69, 77, 90},
    {8, 23, 30, 34, 47, 53, 58, 67, 76, 77},
    {10, 11, 24, 28, 37, 44, 65, 73, 82, 83},
    {3, 6, 21, 26, 38, 39, 49, 64, 68, 93},
    {8, 23, 30, 31, 58, 67, 69, 76, 77, 90},
    {2, 17, 18, 42, 44, 55, 60, 61, 94, 95},
    {4, 8, 19, 22, 41, 59, 72, 78, 87, 97},
    {10, 11, 14, 24, 28, 32, 65, 73, 82, 83},
    {12, 17, 20, 26, 33, 49, 68, 89, 93, 95},
    {3, 6, 13, 21, 26, 33, 64, 68, 79, 100},
    {5, 7, 14, 43, 52, 86, 88, 91, 96, 98},
    {4, 8, 19, 22, 30, 58, 69, 78, 90, 97},
    {12, 17, 18, 35, 44, 55, 82, 89, 94, 95},
    {1, 7, 40, 54, 80, 86, 88, 91, 98, 99},
    {10, 24, 28, 32, 35, 42, 55, 82, 83, 94},
    {15, 23, 30, 31, 34, 67, 69, 76, 77, 90},
    {7, 52, 53, 54, 57, 59, 71, 78, 91, 99},
    {1, 15, 16, 31, 48, 56, 66, 67, 76, 81},
    {1, 20, 29, 31, 43, 47, 56, 66, 76, 81},
    {3, 21, 26, 33, 38, 50, 51, 68, 89, 93},
    {2, 17, 18, 49, 51, 60, 61, 89, 93, 95},
    {2, 18, 33, 49, 50, 60, 61, 84, 93, 95},
    {7, 40, 54, 57, 71, 74, 85, 91, 96, 99},
    {8, 25, 31, 34, 46, 58, 59, 71, 78, 90, 99},
    {7, 37, 43, 46, 52, 57, 71, 74, 88, 91, 99},
    {2, 17, 18, 35, 42, 44, 60, 61, 94, 95},
    {1, 20, 29, 43, 47, 48, 64, 80, 81, 86},
    {7, 46, 52, 54, 59, 71, 74, 78, 85, 91},
    {8, 23, 30, 31, 34, 53, 67, 69, 77, 90},
    {4, 8, 22, 41, 46, 53, 57, 71, 72, 78},
    {2, 17, 18, 35, 50, 51, 55, 61, 84, 95},
    {2, 17, 18, 35, 42, 50, 55, 60, 84, 95},
    {7, 40, 52, 54, 57, 71, 73, 74, 85, 96},
    {6, 9, 13, 16, 25, 27, 39, 75, 79, 84, 100},
    {6, 13, 16, 20, 21, 26, 29, 39, 56, 68},
    {10, 11, 22, 24, 28, 32, 37, 44, 73, 82, 83},
    {9, 15, 16, 25, 31, 47, 48, 67, 76, 81},
    {15, 23, 30, 31, 34, 45, 47, 58, 76, 77},
    {3, 6, 21, 26, 33, 38, 39, 49, 64, 93},
    {8, 23, 30, 34, 41, 45, 58, 67, 77, 90},
    {5, 11, 12, 42, 80, 86, 89, 92, 94, 98},
    {7, 46, 52, 53, 54, 57, 59, 74, 91, 99},
    {4, 8, 19, 22, 36, 41, 59, 78, 87, 97},
    {5, 11, 14, 24, 32, 37, 40, 65, 96, 98},
    {7, 46, 52, 54, 57, 62, 71, 85, 91, 96},
    {9, 13, 16, 25, 27, 63, 66, 79, 81, 100},
    {15, 23, 30, 31, 34, 47, 58, 62, 67, 77, 81},
    {8, 23, 30, 31, 34, 45, 58, 67, 69, 90},
    {8, 41, 46, 53, 57, 58, 59, 71, 72, 90},
    {6, 9, 13, 21, 25, 27, 39, 63, 75, 100},
    {1, 5, 20, 29, 43, 70, 86, 88, 92, 98},
    {9, 15, 16, 31, 47, 48, 56, 66, 67, 76},
    {10, 11, 24, 28, 32, 42, 44, 65, 83, 94},
    {10, 11, 24, 28, 32, 37, 44, 65, 82, 94},
    {2, 17, 18, 35, 50, 51, 55, 60, 61, 78, 95},
    {7, 40, 52, 54, 57, 59, 62, 71, 74, 91, 96},
    {1, 5, 20, 29, 40, 43, 80, 88, 92, 98},
    {4, 19, 22, 36, 41, 59, 72, 78, 90, 97},
    {5, 7, 40, 43, 54, 86, 91, 96, 98, 99},
    {12, 17, 18, 38, 42, 50, 70, 92, 94, 95},
    {8, 23, 30, 34, 41, 53, 58, 69, 77, 78},
    {7, 40, 43, 46, 52, 54, 71, 88, 96, 99},
    {5, 11, 12, 20, 40, 70, 80, 86, 88, 98},
    {3, 6, 21, 26, 33, 38, 49, 50, 51, 56, 68},
    {10, 12, 17, 28, 35, 42, 44, 55, 82, 95},
    {2, 12, 17, 18, 42, 50, 55, 61, 89, 94},
    {5, 7, 14, 40, 52, 73, 85, 88, 91, 98},
    {4, 8, 19, 22, 36, 41, 69, 72, 87, 90},
    {5, 11, 14, 40, 43, 80, 86, 88, 92, 96},
    {7, 40, 43, 46, 52, 53, 54, 71, 88, 91},
    {6, 9, 13, 16, 25, 27, 39, 63, 75, 79}
];
