n = 30;
allowed = [
    {3, 8, 10, 16, 17},
    {19, 23, 24, 27, 28},
    {1, 10, 16, 17},
    {6, 13, 14, 29},
    {10, 15, 16, 17},
    {4, 13, 14, 26},
    {3, 4, 14, 15, 29},
    {12, 18, 23, 30},
    {5, 19, 20, 25},
    {3, 5, 16, 17},
    {13, 21, 22, 26},
    {8, 18, 21, 22},
    {6, 21, 22, 26},
    {4, 6, 26, 29},
    {3, 5, 7, 16, 17},
    {1, 3, 10, 17},
    {1, 3, 10, 16},
    {12, 13, 21, 22, 30},
    {5, 9, 20, 25},
    {5, 10, 15, 25, 27},
    {6, 13, 18, 22},
    {11, 12, 13, 21},
    {2, 24, 27, 30},
    {2, 23, 27, 28},
    {5, 9, 19, 20},
    {6, 11, 13, 14},
    {2, 23, 24, 28},
    {2, 23, 24, 27},
    {4, 6, 7, 14},
    {23, 24, 27, 28}
];
