n = 50;
allowed = [
    {11, 21, 22, 40, 41},
    {16, 24, 29, 34, 50},
    {9, 13, 17, 18, 27, 49},
    {5, 8, 42, 44, 47},
    {4, 6, 22, 42, 44, 47},
    {5, 18, 19, 30, 33},
    {12, 14, 38, 43, 46},
    {4, 21, 39, 42, 44, 47},
    {3, 18, 27, 37, 49},
    {7, 12, 16, 38, 46},
    {1, 17, 21, 26, 43},
    {7, 10, 14, 38, 46},
    {3, 6, 18, 27, 30},
    {7, 12, 26, 38, 43},
    {23, 28, 37, 48, 50},
    {2, 24, 34, 38, 46},
    {11, 14, 20, 26, 43},
    {6, 9, 13, 27, 49},
    {5, 6, 30, 33, 42},
    {12, 14, 17, 26, 43},
    {4, 8, 11, 44, 47},
    {1, 11, 21, 40, 41},
    {3, 9, 15, 29, 37, 49},
    {2, 7, 16, 34, 46},
    {2, 29, 31, 32, 45},
    {11, 14, 17, 20, 43},
    {3, 9, 13, 18, 49},
    {2, 29, 35, 45, 50},
    {2, 25, 28, 45, 50},
    {6, 13, 19, 33, 36},
    {10, 25, 29, 32, 46},
    {10, 25, 31, 39, 46},
    {5, 6, 19, 30, 42},
    {2, 7, 16, 24, 46},
    {2, 9, 24, 28, 36, 50},
    {6, 13, 19, 30, 33},
    {3, 9, 15, 23, 49},
    {7, 12, 14, 18, 43, 46},
    {10, 12, 14, 20, 40, 46},
    {1, 11, 17, 22, 23, 41},
    {1, 21, 22, 42, 47, 48},
    {4, 5, 19, 44, 47},
    {7, 14, 20, 26, 38},
    {4, 5, 8, 42, 47},
    {2, 25, 28, 29, 50},
    {10, 12, 16, 34, 38},
    {4, 5, 8, 42, 44},
    {8, 15, 28, 29, 45, 50},
    {3, 9, 18, 27, 37},
    {2, 28, 29, 35, 45}
];
