n = 50;
allowed = [
    {3, 6, 8, 13, 17, 18, 21, 41, 43, 48},
    {3, 11, 12, 16, 17, 21, 25, 31, 38, 50},
    {1, 10, 16, 19, 21, 25, 32, 33, 38, 48},
    {5, 15, 23, 28, 29, 36, 40, 42, 45, 48},
    {4, 8, 15, 18, 28, 29, 40, 43, 45, 48},
    {1, 5, 8, 13, 18, 40, 41, 43, 45, 48},
    {9, 14, 20, 24, 27, 35, 39, 44, 46, 49},
    {1, 5, 6, 13, 18, 40, 41, 43, 45, 48},
    {7, 22, 24, 27, 34, 37, 44, 46, 47, 49},
    {3, 16, 19, 21, 25, 30, 32, 33, 35, 38},
    {2, 12, 16, 17, 19, 25, 26, 31, 38, 50},
    {2, 11, 16, 19, 25, 26, 30, 31, 38, 50},
    {1, 5, 6, 8, 18, 21, 37, 41, 43, 45, 48},
    {7, 20, 23, 24, 27, 35, 39, 44, 46, 49},
    {4, 5, 20, 23, 28, 29, 36, 40, 45, 48},
    {3, 10, 12, 19, 21, 25, 30, 32, 33, 38},
    {1, 2, 3, 10, 12, 16, 21, 25, 38, 41},
    {1, 5, 6, 8, 13, 28, 40, 41, 43, 45},
    {3, 10, 12, 16, 25, 30, 31, 32, 33, 38},
    {4, 7, 14, 15, 23, 27, 28, 35, 39, 48},
    {1, 2, 3, 10, 16, 17, 19, 25, 33, 48},
    {7, 9, 19, 24, 30, 32, 33, 34, 35, 46, 47},
    {4, 15, 20, 28, 29, 35, 36, 39, 45, 48},
    {7, 9, 14, 27, 35, 37, 39, 44, 46, 49},
    {2, 3, 10, 12, 16, 19, 31, 33, 38, 50},
    {2, 6, 11, 12, 16, 17, 19, 25, 31, 38, 50},
    {7, 14, 20, 23, 24, 35, 39, 44, 46, 49},
    {4, 5, 15, 20, 23, 29, 36, 40, 45, 48},
    {4, 5, 15, 20, 23, 28, 36, 40, 42, 45},
    {10, 16, 19, 22, 25, 31, 32, 33, 38, 47},
    {10, 11, 12, 16, 19, 25, 26, 30, 38, 50},
    {3, 10, 16, 19, 22, 25, 30, 33, 35, 47},
    {3, 10, 16, 19, 21, 25, 30, 32, 35, 39},
    {7, 9, 22, 24, 30, 32, 37, 44, 46, 47},
    {7, 14, 20, 24, 27, 32, 33, 39, 44, 46},
    {4, 5, 14, 15, 23, 28, 29, 33, 40, 42, 45},
    {7, 9, 22, 24, 27, 34, 44, 46, 47, 49},
    {2, 10, 11, 12, 16, 19, 25, 26, 31, 50},
    {7, 14, 15, 20, 23, 24, 27, 35, 44, 49},
    {4, 5, 15, 18, 23, 28, 29, 36, 43, 45},
    {1, 5, 6, 8, 13, 18, 21, 43, 45, 48},
    {4, 14, 15, 20, 23, 28, 29, 36, 40, 45},
    {1, 5, 6, 8, 13, 18, 40, 41, 45, 48},
    {7, 9, 12, 14, 24, 27, 35, 37, 39, 46, 49},
    {4, 5, 8, 15, 23, 28, 29, 40, 43, 48},
    {7, 9, 14, 24, 27, 35, 37, 39, 44, 49},
    {7, 9, 22, 24, 30, 32, 34, 35, 37, 46},
    {4, 5, 8, 15, 20, 21, 23, 28, 43, 45},
    {7, 9, 14, 20, 24, 27, 35, 39, 44, 46},
    {2, 11, 12, 16, 17, 19, 25, 26, 31, 38}
];
