n = 100;
allowed = [
    {2, 7, 51, 53},
    {16, 29, 46},
    {41, 56, 62},
    {20, 42, 96},
    {10, 55, 94},
    {18, 27, 30},
    {1, 53, 68},
    {36, 63, 74, 80},
    {20, 92, 96},
    {5, 91, 94},
    {26, 31, 32, 76},
    {40, 88, 92},
    {33, 84, 91},
    {44, 79, 87},
    {16, 46, 59, 73},
    {15, 46, 73},
    {4, 20, 75},
    {6, 27, 30},
    {69, 93, 100},
    {4, 9, 17, 35},
    {22, 27, 99},
    {21, 95, 99},
    {34, 36, 66},
    {13, 25, 33, 91},
    {38, 56, 58},
    {11, 32, 37},
    {6, 18, 21},
    {45, 81, 84, 94},
    {2, 15, 46, 65},
    {6, 18, 95},
    {11, 67, 76, 90},
    {11, 26, 76},
    {13, 50, 84, 91},
    {54, 65, 86},
    {77, 78, 98, 100},
    {23, 61, 66},
    {3, 58, 61},
    {25, 56, 58, 97},
    {17, 75, 82},
    {12, 39, 88},
    {34, 49, 65},
    {4, 17, 96},
    {47, 57, 80},
    {12, 14, 79},
    {1, 20, 51, 66},
    {2, 16, 73},
    {43, 57, 80},
    {51, 53, 88, 89},
    {34, 54, 86},
    {5, 59, 95},
    {1, 45, 53},
    {60, 69, 70},
    {1, 7, 89},
    {34, 49, 52, 86},
    {5, 10, 83},
    {3, 58, 62},
    {8, 63, 80, 83},
    {25, 37, 56},
    {50, 64, 78},
    {52, 69, 70},
    {26, 36, 37},
    {3, 41, 56},
    {67, 74, 80},
    {59, 78, 93},
    {34, 41, 49, 81},
    {1, 45, 51},
    {8, 63, 74},
    {7, 53, 89},
    {19, 93, 100},
    {3, 52, 60, 69},
    {19, 85, 100},
    {9, 77, 92},
    {15, 16, 46},
    {8, 63, 67},
    {17, 20, 39},
    {11, 31, 32},
    {35, 71, 100},
    {62, 64, 93, 100},
    {14, 35, 87},
    {8, 63, 67},
    {13, 33, 85, 90},
    {17, 39, 75},
    {24, 55, 73},
    {13, 33, 91},
    {28, 42, 69, 71},
    {34, 49, 54},
    {14, 79, 99},
    {9, 12, 18, 40},
    {1, 53, 68},
    {13, 33, 81},
    {13, 33, 84},
    {9, 72, 96},
    {19, 69, 100},
    {10, 47, 84, 91},
    {22, 30, 50},
    {4, 9, 42},
    {21, 29, 32, 99},
    {48, 49, 68, 86},
    {21, 22, 87},
    {19, 71, 74, 93}
];
