n = 50;
allowed = [
    {2, 5, 10, 24, 26, 36, 41, 46, 47, 48},
    {4, 5, 14, 26, 27, 31, 34, 41, 45, 49},
    {8, 11, 13, 20, 23, 24, 35, 36, 42, 44},
    {2, 5, 14, 25, 26, 27, 28, 34, 45, 49},
    {1, 2, 9, 26, 31, 34, 41, 46, 47, 49},
    {12, 17, 18, 20, 23, 29, 32, 35, 38, 50},
    {2, 4, 14, 16, 25, 27, 28, 30, 44, 45},
    {3, 10, 11, 24, 30, 35, 36, 42, 44, 48},
    {2, 5, 26, 31, 34, 37, 39, 46, 47, 49},
    {1, 5, 8, 11, 24, 26, 36, 41, 46, 48},
    {3, 8, 10, 20, 23, 24, 35, 36, 42, 48},
    {6, 13, 17, 18, 23, 29, 32, 38, 40, 43, 50},
    {3, 8, 11, 20, 23, 27, 30, 35, 36, 42, 44},
    {2, 4, 19, 22, 25, 27, 28, 34, 45, 49},
    {9, 19, 21, 22, 31, 33, 34, 37, 39, 40},
    {4, 7, 8, 10, 24, 25, 28, 30, 36, 44},
    {6, 12, 18, 20, 23, 29, 32, 35, 43, 50},
    {1, 9, 32, 37, 39, 40, 43, 46, 47, 48},
    {2, 4, 9, 14, 22, 27, 31, 34, 45, 49},
    {3, 6, 11, 17, 23, 24, 35, 38, 42, 48, 50},
    {9, 15, 31, 33, 34, 37, 39, 40, 43, 47},
    {2, 9, 14, 19, 27, 31, 33, 34, 45, 49},
    {3, 6, 11, 17, 18, 20, 32, 35, 48, 50},
    {1, 5, 8, 10, 11, 26, 36, 41, 46, 48},
    {2, 4, 7, 14, 16, 27, 28, 30, 36, 45},
    {1, 2, 5, 10, 24, 31, 41, 46, 47, 48},
    {2, 4, 14, 19, 22, 28, 31, 34, 45, 49},
    {2, 4, 7, 14, 16, 25, 27, 34, 45, 49},
    {6, 12, 17, 18, 23, 32, 38, 40, 43, 50},
    {8, 10, 11, 16, 24, 25, 36, 41, 42, 44},
    {2, 5, 9, 19, 26, 34, 37, 39, 47, 49},
    {12, 17, 18, 29, 37, 38, 40, 43, 46, 47},
    {9, 15, 19, 21, 22, 31, 34, 39, 40, 49},
    {2, 4, 5, 9, 19, 22, 27, 31, 45, 49},
    {3, 8, 11, 17, 20, 23, 24, 42, 48, 50},
    {1, 8, 10, 11, 24, 30, 41, 42, 44, 48},
    {1, 5, 9, 18, 31, 32, 39, 43, 46, 47},
    {6, 12, 17, 18, 29, 32, 37, 40, 43, 47},
    {5, 9, 21, 31, 34, 37, 43, 46, 47, 49},
    {12, 15, 18, 21, 32, 37, 38, 39, 43, 47},
    {1, 2, 5, 10, 24, 26, 36, 46, 47, 48},
    {3, 8, 10, 11, 20, 24, 30, 35, 36, 44, 48},
    {9, 12, 18, 29, 32, 37, 39, 40, 46, 47},
    {3, 8, 10, 11, 16, 24, 30, 36, 42, 48},
    {2, 4, 14, 19, 22, 27, 28, 31, 34, 49},
    {1, 5, 10, 18, 24, 26, 37, 41, 47, 48},
    {1, 5, 9, 18, 26, 31, 37, 39, 41, 46},
    {1, 5, 10, 11, 24, 26, 36, 41, 46, 47},
    {2, 4, 5, 6, 9, 19, 22, 27, 31, 34, 45},
    {3, 6, 11, 12, 17, 20, 23, 29, 32, 35}
];
