n = 30;
allowed = [
    {2, 4, 8, 10, 12, 23, 25, 27, 28, 30},
    {1, 4, 6, 8, 11, 12, 23, 27, 28, 30},
    {7, 9, 11, 13, 15, 16, 18, 22, 24, 26},
    {1, 2, 6, 8, 11, 12, 21, 23, 27, 28, 30},
    {9, 10, 12, 19, 20, 21, 23, 25, 29, 30},
    {2, 3, 4, 11, 15, 16, 18, 22, 24, 26},
    {3, 9, 13, 14, 15, 17, 20, 22, 24, 29},
    {1, 10, 12, 19, 21, 23, 25, 27, 28, 30},
    {3, 7, 13, 14, 17, 20, 22, 24, 25, 29},
    {1, 8, 12, 19, 21, 23, 25, 27, 28, 30},
    {3, 6, 13, 15, 16, 22, 23, 24, 25, 30},
    {1, 8, 10, 19, 21, 23, 25, 27, 28, 30},
    {3, 7, 9, 11, 15, 16, 18, 22, 24, 26},
    {3, 5, 7, 9, 13, 17, 20, 22, 24, 29},
    {3, 6, 9, 11, 13, 16, 18, 22, 24, 26},
    {3, 6, 11, 13, 15, 18, 22, 24, 26, 30},
    {5, 7, 9, 13, 14, 20, 21, 24, 25, 29},
    {3, 7, 9, 11, 13, 15, 16, 22, 24, 26},
    {1, 5, 8, 10, 12, 21, 23, 25, 28, 30},
    {5, 7, 9, 13, 14, 17, 21, 23, 25, 29},
    {5, 8, 10, 11, 12, 19, 23, 25, 29, 30},
    {3, 7, 9, 11, 13, 15, 16, 18, 24, 26},
    {5, 8, 10, 11, 12, 19, 21, 25, 27, 30},
    {3, 7, 9, 11, 13, 15, 16, 18, 22, 26},
    {3, 5, 9, 10, 11, 12, 19, 21, 23, 30},
    {2, 3, 6, 11, 13, 15, 16, 18, 22, 24},
    {1, 2, 4, 8, 10, 12, 23, 25, 28, 30},
    {1, 2, 4, 8, 10, 12, 19, 23, 27, 30},
    {5, 7, 9, 14, 17, 20, 21, 23, 25, 30},
    {1, 5, 8, 10, 11, 12, 21, 23, 25, 27}
];
