n = 100;
allowed = [
    {2, 24, 45, 58, 66, 69, 70, 75, 80, 90},
    {1, 24, 37, 50, 54, 58, 66, 69, 80, 90},
    {8, 11, 28, 39, 44, 46, 57, 60, 71, 76},
    {1, 17, 24, 35, 37, 47, 48, 59, 80, 93},
    {20, 55, 68, 70, 73, 77, 82, 85, 88, 99},
    {7, 14, 21, 30, 32, 49, 53, 56, 78, 81},
    {12, 14, 21, 30, 32, 49, 53, 78, 81, 87},
    {3, 11, 28, 31, 39, 44, 46, 60, 76, 83},
    {10, 15, 16, 25, 26, 63, 65, 72, 84, 97},
    {2, 9, 17, 25, 51, 52, 54, 58, 63, 72, 93},
    {3, 8, 28, 39, 44, 46, 57, 60, 71, 76},
    {7, 14, 30, 32, 51, 61, 63, 78, 86, 98},
    {5, 20, 33, 36, 43, 57, 73, 82, 85, 100},
    {6, 7, 21, 30, 32, 49, 53, 56, 78, 81},
    {9, 16, 25, 26, 29, 34, 63, 65, 84, 97},
    {9, 15, 25, 26, 27, 29, 34, 65, 84, 97},
    {2, 10, 18, 37, 48, 54, 69, 72, 80, 95},
    {9, 10, 17, 25, 37, 42, 48, 54, 65, 95},
    {11, 31, 38, 71, 74, 76, 79, 89, 92, 96},
    {5, 45, 55, 64, 73, 82, 85, 88, 99, 100},
    {6, 7, 14, 30, 49, 53, 56, 78, 81, 87},
    {8, 23, 28, 31, 40, 46, 61, 62, 67, 83},
    {22, 50, 61, 62, 67, 68, 77, 83, 90, 91},
    {1, 2, 50, 54, 58, 66, 69, 80, 90, 91},
    {9, 10, 15, 16, 18, 26, 42, 65, 72, 95},
    {9, 15, 16, 25, 27, 29, 34, 65, 84, 97},
    {15, 16, 26, 29, 34, 41, 65, 84, 94, 97},
    {3, 8, 11, 22, 31, 39, 46, 60, 76, 83},
    {15, 16, 26, 27, 34, 41, 65, 84, 94, 97},
    {6, 7, 12, 14, 21, 32, 53, 56, 81, 86},
    {8, 22, 28, 40, 46, 62, 74, 76, 79, 89},
    {7, 12, 14, 30, 53, 56, 78, 81, 86, 98},
    {5, 13, 20, 36, 43, 55, 73, 82, 85, 100},
    {15, 16, 26, 27, 29, 41, 65, 84, 94, 97},
    {1, 4, 17, 24, 37, 47, 48, 59, 80, 93},
    {5, 13, 33, 43, 46, 57, 68, 73, 82, 83},
    {2, 17, 18, 24, 35, 48, 54, 58, 69, 80},
    {11, 19, 28, 31, 71, 74, 76, 79, 92, 96},
    {3, 8, 11, 28, 44, 46, 50, 57, 60, 71, 76},
    {22, 28, 31, 61, 62, 67, 74, 78, 87, 89},
    {15, 16, 26, 27, 29, 34, 65, 84, 94, 97},
    {9, 15, 16, 17, 18, 25, 26, 48, 65, 95},
    {5, 13, 20, 33, 36, 55, 73, 82, 85, 100},
    {3, 8, 11, 28, 39, 46, 57, 60, 71, 76},
    {1, 55, 66, 70, 75, 77, 85, 88, 90, 99},
    {3, 8, 11, 28, 31, 39, 44, 60, 76, 83},
    {1, 4, 17, 35, 37, 48, 59, 80, 93, 95},
    {10, 17, 18, 25, 35, 37, 42, 47, 54, 91, 95},
    {6, 7, 14, 21, 53, 78, 81, 87, 89, 96},
    {2, 23, 24, 52, 58, 61, 69, 80, 90, 91},
    {10, 12, 32, 50, 52, 61, 63, 72, 86, 98},
    {2, 10, 50, 51, 54, 58, 61, 63, 72, 98},
    {6, 7, 14, 21, 30, 32, 49, 56, 78, 81},
    {2, 10, 17, 24, 37, 52, 58, 69, 72, 80},
    {5, 20, 45, 68, 70, 73, 77, 85, 88, 99},
    {6, 7, 14, 19, 21, 30, 32, 49, 53, 78, 81},
    {3, 8, 11, 28, 39, 44, 46, 60, 76, 83},
    {1, 2, 24, 50, 52, 54, 69, 80, 90, 91},
    {1, 4, 35, 37, 45, 47, 66, 75, 80, 93},
    {3, 8, 11, 28, 39, 44, 46, 57, 71, 76},
    {12, 22, 23, 40, 50, 51, 52, 62, 67, 98},
    {22, 23, 31, 40, 61, 67, 74, 87, 89, 98},
    {9, 10, 12, 15, 16, 51, 72, 84, 86, 97},
    {5, 13, 20, 33, 43, 55, 82, 85, 88, 100},
    {9, 15, 16, 25, 26, 27, 34, 42, 84, 97},
    {1, 24, 45, 55, 70, 75, 76, 77, 90, 91, 99},
    {8, 22, 23, 28, 31, 40, 46, 61, 62, 83},
    {5, 23, 36, 55, 70, 73, 77, 90, 91, 99},
    {1, 2, 24, 37, 50, 54, 58, 66, 80, 90},
    {5, 45, 55, 66, 68, 75, 77, 90, 91, 99},
    {3, 11, 19, 28, 38, 39, 44, 60, 76, 79},
    {9, 10, 15, 17, 25, 51, 52, 54, 63, 97},
    {5, 36, 43, 55, 68, 70, 77, 82, 85, 99},
    {19, 28, 31, 40, 49, 79, 87, 89, 92, 96},
    {1, 45, 55, 66, 70, 77, 85, 88, 90, 99},
    {3, 8, 11, 28, 31, 39, 44, 46, 60, 71},
    {5, 45, 55, 66, 68, 70, 73, 90, 91, 99},
    {7, 14, 21, 30, 32, 40, 49, 53, 81, 87},
    {19, 31, 38, 71, 74, 76, 87, 89, 92, 96},
    {1, 2, 10, 17, 24, 37, 50, 54, 58, 69},
    {6, 7, 14, 21, 30, 49, 53, 56, 78, 87},
    {5, 13, 20, 33, 36, 43, 55, 73, 85, 100},
    {3, 8, 22, 28, 36, 39, 44, 46, 60, 67},
    {15, 16, 26, 27, 29, 34, 41, 63, 94, 97},
    {5, 20, 45, 55, 70, 73, 75, 77, 88, 99},
    {7, 12, 14, 30, 32, 51, 53, 63, 84, 98},
    {7, 14, 31, 40, 49, 62, 74, 78, 81, 89},
    {5, 20, 45, 55, 66, 70, 73, 75, 82, 85, 99},
    {12, 22, 28, 31, 40, 49, 62, 74, 79, 87, 96},
    {45, 50, 55, 66, 68, 70, 75, 77, 91, 99},
    {23, 24, 50, 58, 66, 68, 70, 77, 90, 99},
    {18, 19, 31, 38, 49, 71, 74, 79, 87, 89, 96},
    {4, 17, 18, 35, 37, 47, 48, 59, 80, 95},
    {15, 16, 26, 27, 29, 34, 41, 65, 84, 97},
    {9, 10, 17, 18, 25, 37, 42, 48, 54, 65},
    {19, 21, 31, 38, 49, 74, 79, 87, 89, 92},
    {9, 15, 16, 25, 26, 29, 34, 63, 65, 84},
    {7, 12, 32, 40, 51, 52, 61, 62, 78, 86},
    {5, 45, 55, 66, 68, 70, 73, 77, 85, 90},
    {5, 13, 20, 33, 36, 43, 64, 73, 82, 85}
];
