n = 30;
allowed = [
    {8, 9, 11, 17, 26},
    {6, 12, 20, 24, 30},
    {8, 15, 17, 26, 28},
    {8, 23, 25, 27, 28},
    {14, 16, 18, 22, 29},
    {2, 12, 19, 24, 30},
    {2, 10, 12, 18, 20, 30},
    {4, 15, 23, 26, 28},
    {1, 4, 8, 26, 28},
    {2, 7, 12, 20, 24},
    {12, 13, 17, 22, 26, 29},
    {2, 6, 19, 24, 30},
    {11, 16, 17, 22, 26},
    {5, 9, 13, 16, 22, 29},
    {3, 8, 17, 26, 28},
    {13, 14, 18, 22, 29},
    {11, 13, 15, 22, 26},
    {5, 6, 14, 16, 22, 29},
    {6, 23, 24, 25, 30},
    {2, 3, 7, 10, 30},
    {1, 4, 19, 23, 25, 27},
    {13, 14, 16, 17, 29},
    {4, 19, 25, 27, 28},
    {2, 6, 12, 19, 30},
    {4, 6, 19, 23, 27},
    {8, 13, 15, 17, 28},
    {4, 19, 21, 23, 25},
    {3, 4, 8, 15, 26},
    {5, 13, 14, 16, 22},
    {2, 6, 12, 19, 24}
];
