n = 100;
allowed = [
    {7, 12, 20, 59, 73},
    {13, 24, 25, 39, 97},
    {8, 9, 32, 33, 51},
    {22, 36, 50, 55, 87},
    {29, 53, 61, 66, 74},
    {29, 44, 52, 72, 95},
    {1, 20, 24, 39, 99},
    {3, 9, 32, 33, 51},
    {3, 8, 33, 46, 51},
    {23, 35, 48, 83, 88},
    {37, 41, 60, 62, 64, 69},
    {1, 20, 59, 83, 88},
    {2, 25, 47, 63, 78},
    {15, 16, 52, 65, 90},
    {14, 48, 52, 65, 90},
    {14, 21, 31, 49, 65},
    {19, 27, 58, 84, 93},
    {28, 40, 46, 51, 68},
    {17, 27, 58, 84, 93},
    {1, 7, 12, 59, 73},
    {16, 31, 49, 65, 70},
    {55, 86, 87, 89, 96},
    {10, 35, 48, 83, 88},
    {2, 25, 39, 97, 99},
    {2, 13, 24, 60, 63, 97},
    {38, 40, 70, 80, 82, 85},
    {17, 19, 74, 84, 93},
    {8, 18, 32, 46, 68},
    {5, 6, 44, 61, 95},
    {7, 20, 59, 73, 99},
    {14, 16, 21, 49, 65},
    {8, 28, 68, 81, 100},
    {3, 8, 9, 30, 42, 47},
    {42, 43, 72, 94, 98},
    {10, 23, 48, 83, 88},
    {4, 22, 55, 87, 96},
    {11, 60, 62, 64, 69},
    {21, 26, 80, 82, 85},
    {2, 7, 24, 25, 99},
    {11, 18, 28, 60, 69, 90},
    {22, 53, 86, 89, 96},
    {34, 43, 47, 76, 98},
    {34, 42, 68, 76, 81, 98},
    {6, 67, 72, 94, 95},
    {5, 41, 53, 62, 75},
    {3, 8, 18, 28, 51},
    {13, 42, 63, 76, 78},
    {10, 15, 23, 35, 65},
    {14, 16, 21, 31, 65},
    {4, 36, 54, 56, 87, 96},
    {3, 8, 9, 18, 46},
    {6, 14, 15, 90, 95},
    {41, 66, 86, 89, 96},
    {4, 36, 50, 56, 87},
    {22, 36, 80, 86, 87, 96},
    {36, 50, 54, 55, 87},
    {17, 58, 65, 79, 91, 92},
    {8, 17, 19, 27, 84, 92},
    {1, 12, 20, 30, 73},
    {11, 37, 62, 64, 69},
    {5, 29, 54, 66, 74, 95},
    {11, 37, 60, 64, 69},
    {13, 25, 47, 76, 78},
    {11, 37, 60, 62, 69},
    {14, 15, 16, 31, 49},
    {5, 27, 53, 61, 74},
    {44, 72, 94, 98, 100},
    {8, 28, 32, 81, 100},
    {11, 37, 60, 62, 64},
    {21, 77, 79, 91, 93},
    {57, 60, 62, 64, 69, 75},
    {34, 44, 67, 94, 98},
    {1, 20, 30, 59, 99},
    {5, 27, 66, 84, 93},
    {45, 55, 71, 86, 87, 96},
    {34, 42, 43, 90, 98},
    {45, 70, 74, 84, 91, 93},
    {13, 25, 47, 63, 97},
    {17, 57, 91, 92, 93},
    {26, 38, 57, 79, 92},
    {32, 43, 68, 98, 100},
    {10, 26, 38, 85, 88},
    {10, 12, 23, 35, 88},
    {17, 19, 27, 74, 93},
    {10, 21, 26, 38, 82},
    {22, 41, 53, 89, 96},
    {22, 36, 55, 89, 96},
    {10, 12, 23, 35, 83},
    {22, 41, 55, 86, 96},
    {14, 15, 52, 63, 75, 76},
    {17, 77, 79, 92, 93},
    {17, 57, 58, 79, 91},
    {17, 27, 77, 84, 91},
    {34, 44, 67, 72, 98},
    {6, 29, 44, 52, 61},
    {22, 55, 86, 87, 89},
    {2, 13, 24, 25, 99},
    {34, 42, 43, 72, 94},
    {7, 24, 30, 39, 70, 97},
    {32, 43, 68, 81, 98}
];
