n = 30;
allowed = [
    {11, 15, 25},
    {5, 9, 13},
    {4, 24, 26},
    {3, 24, 26},
    {2, 9, 13},
    {18, 20, 23, 26},
    {12, 14, 17, 21},
    {7, 12, 17, 21},
    {5, 13, 22, 25},
    {21, 23, 28},
    {1, 15, 25},
    {7, 8, 21},
    {5, 9, 22},
    {8, 11, 15, 25},
    {1, 11, 25, 29},
    {3, 4, 26},
    {7, 16, 27},
    {4, 6, 23},
    {1, 11, 12, 13},
    {6, 18, 19, 23},
    {10, 16, 26},
    {9, 13, 29},
    {6, 10, 26},
    {3, 4, 5, 16},
    {1, 11, 15},
    {3, 4, 16},
    {11, 15, 17, 18},
    {10, 17, 21, 23},
    {9, 22, 30},
    {9, 22, 28, 29}
];
