n = 30;
allowed = [
    {3, 8, 19, 20, 21},
    {10, 11, 12, 15, 16},
    {9, 19, 20, 21, 24},
    {6, 7, 10, 12, 18},
    {9, 14, 21, 24, 25, 27},
    {4, 10, 12, 16, 18},
    {4, 10, 12, 14, 25},
    {1, 17, 20, 21, 30},
    {3, 19, 21, 24, 29},
    {4, 6, 7, 12, 16},
    {2, 8, 10, 12, 15, 16},
    {4, 6, 7, 10, 25},
    {17, 22, 26, 27, 28},
    {5, 7, 12, 25, 27},
    {2, 6, 10, 11, 16},
    {2, 6, 10, 12, 15},
    {13, 22, 26, 27, 30},
    {4, 6, 10, 12, 23},
    {1, 3, 14, 20, 21, 24},
    {8, 19, 21, 24, 30},
    {3, 8, 19, 20, 24},
    {13, 17, 24, 26, 27, 28},
    {4, 6, 9, 18, 22, 29},
    {3, 5, 19, 20, 21},
    {5, 7, 10, 12, 14},
    {13, 17, 27, 28, 30},
    {13, 17, 18, 26, 28, 30},
    {13, 17, 22, 26, 27},
    {3, 4, 9, 23, 24},
    {8, 17, 20, 26, 27}
];
