n = 30;
allowed = [
    {2, 3, 11, 12, 14, 16, 17, 19, 23, 26},
    {1, 6, 8, 11, 12, 14, 15, 18, 23, 25},
    {1, 2, 8, 10, 11, 13, 17, 18, 19, 29},
    {5, 6, 7, 9, 20, 21, 23, 25, 28, 30},
    {4, 6, 7, 9, 18, 20, 24, 25, 28, 30},
    {4, 5, 7, 9, 18, 20, 23, 24, 25, 30},
    {4, 5, 6, 8, 9, 10, 18, 24, 28, 30},
    {2, 6, 10, 11, 13, 18, 23, 24, 25, 29},
    {4, 5, 6, 7, 20, 21, 24, 25, 28, 30},
    {5, 7, 8, 11, 13, 18, 23, 24, 28, 29},
    {1, 2, 3, 8, 10, 13, 18, 19, 23, 29},
    {1, 2, 14, 15, 19, 21, 22, 23, 25, 27},
    {3, 7, 8, 10, 11, 18, 23, 24, 28, 29},
    {1, 2, 12, 15, 19, 21, 22, 23, 25, 27},
    {2, 6, 12, 14, 20, 21, 22, 23, 25, 27},
    {1, 2, 3, 11, 12, 14, 17, 19, 23, 26, 28},
    {1, 2, 3, 11, 12, 14, 16, 19, 23, 26},
    {5, 7, 8, 10, 11, 13, 23, 24, 28, 29},
    {1, 2, 3, 11, 12, 14, 16, 17, 23, 26},
    {4, 5, 6, 7, 9, 15, 21, 22, 25, 30},
    {4, 6, 12, 14, 15, 20, 22, 25, 27, 30},
    {4, 6, 12, 14, 15, 20, 21, 25, 27, 30},
    {2, 5, 6, 8, 10, 11, 14, 15, 18, 25},
    {5, 6, 7, 8, 10, 13, 18, 23, 28, 29},
    {2, 4, 5, 6, 8, 14, 15, 16, 20, 21, 23},
    {1, 2, 3, 11, 12, 14, 16, 17, 19, 23},
    {2, 6, 12, 14, 15, 20, 21, 22, 23, 25},
    {4, 5, 6, 7, 8, 10, 18, 24, 29, 30},
    {3, 7, 8, 10, 11, 13, 18, 23, 24, 28},
    {4, 5, 6, 7, 9, 20, 21, 24, 25, 28}
];
