n = 100;
allowed = [
    {11, 15, 36, 94},
    {5, 73, 93, 99},
    {4, 24, 26, 48},
    {3, 24, 51, 68},
    {9, 13, 73, 93},
    {16, 18, 23, 47, 75},
    {33, 50, 63, 80},
    {12, 58, 81, 86},
    {5, 13, 73, 93},
    {21, 28, 31, 92},
    {1, 15, 36, 90, 94},
    {58, 71, 78, 86},
    {5, 9, 41, 93},
    {43, 62, 76, 82},
    {1, 11, 46, 55},
    {3, 26, 48, 84},
    {33, 53, 69, 85},
    {6, 47, 75, 100},
    {41, 83, 94, 95, 97},
    {38, 54, 61, 89},
    {10, 31, 59, 92},
    {9, 29, 64, 74},
    {47, 75, 87, 96},
    {3, 4, 51, 68},
    {1, 36, 46, 94},
    {16, 31, 48, 52},
    {15, 40, 53, 91},
    {3, 10, 37, 92, 98},
    {22, 30, 74, 95},
    {22, 29, 74, 99},
    {10, 26, 52, 92},
    {43, 55, 76, 82},
    {7, 17, 63, 80},
    {50, 59, 60, 67, 78},
    {17, 53, 80, 85},
    {1, 25, 46, 94},
    {28, 60, 96, 98},
    {20, 54, 77, 89},
    {2, 19, 51, 93, 100},
    {27, 66, 69, 91},
    {13, 64, 72, 83},
    {8, 38, 61, 77, 89},
    {14, 32, 76, 82},
    {45, 49, 65, 79},
    {49, 65, 79, 100},
    {15, 25, 36, 55, 97},
    {23, 52, 75, 87},
    {3, 16, 26, 84},
    {44, 45, 65, 79},
    {59, 63, 78, 86},
    {3, 4, 24, 68},
    {26, 47, 75, 87},
    {17, 27, 85, 91},
    {20, 38, 61, 89},
    {15, 36, 46, 76},
    {12, 66, 67, 71, 78},
    {2, 30, 74, 99},
    {8, 12, 39, 81, 86},
    {34, 50, 63, 78},
    {28, 37, 67, 98},
    {42, 54, 77, 89},
    {25, 46, 55, 76},
    {7, 33, 50, 80},
    {13, 41, 72, 83},
    {44, 45, 49, 79},
    {1, 11, 24, 40},
    {34, 56, 71, 78},
    {3, 4, 24, 51, 100},
    {17, 40, 84, 91},
    {18, 20, 54, 89, 90},
    {12, 56, 67, 78},
    {22, 29, 64, 83},
    {2, 5, 9, 93},
    {22, 29, 30, 88, 99},
    {23, 47, 87, 96},
    {32, 46, 55, 62},
    {38, 42, 61, 89},
    {12, 34, 50, 59},
    {44, 45, 49, 54, 65},
    {7, 33, 63, 86},
    {8, 12, 58, 86},
    {14, 32, 43, 56, 76},
    {19, 41, 64, 97},
    {16, 26, 36, 48, 69},
    {17, 33, 35, 53},
    {50, 58, 63, 80},
    {23, 47, 75, 96},
    {1, 25, 36, 87, 94},
    {20, 38, 54, 61},
    {20, 54, 70, 89},
    {27, 40, 53, 69},
    {10, 21, 28, 31},
    {2, 5, 9, 73},
    {1, 11, 25, 36},
    {29, 30, 72, 74, 82},
    {23, 47, 52, 75, 87},
    {19, 41, 64, 83},
    {10, 28, 37, 60},
    {2, 9, 57, 73},
    {18, 39, 45, 49}
];
