n = 50;
allowed = [
    {2, 15, 21, 30, 32},
    {1, 15, 21, 30, 32, 35},
    {1, 4, 30, 32, 46},
    {3, 14, 21, 30, 32, 33},
    {11, 28, 36, 44, 48},
    {17, 20, 35, 45, 47},
    {12, 26, 31, 40, 41},
    {16, 18, 34, 39, 49},
    {4, 14, 22, 43, 46},
    {19, 24, 26, 33, 34},
    {5, 13, 22, 29, 37},
    {7, 27, 31, 40, 41},
    {6, 15, 20, 21, 29, 37},
    {3, 4, 9, 22, 46},
    {1, 2, 21, 29, 32},
    {8, 34, 39, 43, 49},
    {6, 20, 35, 42, 45},
    {8, 10, 33, 34, 39},
    {10, 24, 25, 26, 27},
    {6, 17, 35, 36, 44},
    {1, 15, 29, 30, 32},
    {4, 9, 11, 14, 37},
    {38, 40, 41, 47, 50},
    {10, 19, 25, 26, 31},
    {4, 7, 10, 19, 24, 26},
    {7, 19, 24, 25, 31},
    {2, 12, 19, 26, 31},
    {5, 36, 42, 44, 48},
    {1, 13, 15, 21, 32},
    {1, 2, 15, 21, 32},
    {7, 12, 26, 27, 41},
    {1, 2, 15, 21, 30},
    {8, 10, 13, 18, 19, 34},
    {8, 16, 39, 43, 49, 50},
    {6, 17, 20, 42, 44},
    {28, 35, 39, 42, 44, 48},
    {4, 11, 14, 22, 29},
    {7, 11, 12, 23, 40, 41},
    {8, 16, 34, 43, 49},
    {7, 12, 23, 38, 41},
    {7, 12, 31, 40, 50},
    {17, 20, 35, 36, 44},
    {16, 34, 39, 46, 49},
    {20, 28, 35, 36, 48},
    {6, 17, 31, 35, 47, 50},
    {3, 14, 18, 30, 34, 43},
    {6, 17, 35, 45, 50},
    {5, 20, 28, 36, 44},
    {8, 16, 34, 39, 43},
    {6, 17, 41, 45, 47}
];
