n = 30;
allowed = [
    {10, 14, 22, 24, 30},
    {11, 12, 15, 19, 21},
    {4, 9, 18, 28, 29},
    {2, 3, 9, 18, 28, 29},
    {6, 16, 18, 23, 26},
    {5, 16, 18, 23, 26},
    {17, 24, 25, 27, 29},
    {11, 12, 13, 19, 20},
    {3, 4, 27, 28, 29},
    {1, 14, 22, 24, 30},
    {2, 8, 12, 13, 19},
    {8, 11, 13, 19, 20, 21},
    {8, 11, 12, 19, 20},
    {1, 10, 15, 22, 30},
    {1, 2, 11, 14, 21},
    {6, 7, 17, 23, 26},
    {7, 16, 24, 25, 29},
    {3, 4, 6, 23, 28},
    {2, 8, 11, 12, 13},
    {8, 11, 12, 13, 19},
    {2, 11, 12, 15, 19},
    {1, 10, 24, 27, 30},
    {3, 6, 17, 18, 28},
    {7, 22, 25, 27, 29},
    {7, 17, 24, 27, 29},
    {5, 6, 16, 17, 23},
    {7, 24, 25, 29, 30},
    {3, 4, 7, 18, 29},
    {3, 7, 25, 27, 28},
    {1, 10, 22, 24, 27}
];
