n = 100;
allowed = [
    {12, 20, 59},
    {24, 25, 97},
    {8, 9, 33, 77},
    {22, 36, 50},
    {61, 66, 74, 76},
    {29, 44, 95},
    {24, 39, 99},
    {3, 9, 51},
    {3, 8, 33},
    {23, 27, 83, 88},
    {37, 60, 69},
    {1, 20, 59},
    {25, 63, 78},
    {15, 52, 65},
    {14, 65, 90},
    {31, 49, 65},
    {58, 84, 93},
    {28, 46, 51},
    {17, 58, 84, 86},
    {1, 12, 59},
    {16, 18, 31, 49},
    {55, 89, 96},
    {10, 35, 83},
    {2, 39, 50, 99},
    {2, 13, 97},
    {38, 82, 85},
    {17, 74, 84},
    {18, 32, 68},
    {6, 61, 95},
    {59, 73, 99},
    {16, 49, 65},
    {68, 81, 100},
    {3, 8, 9},
    {12, 43, 94, 98},
    {10, 23, 48},
    {55, 87, 96},
    {11, 64, 69},
    {26, 82, 85},
    {2, 7, 24},
    {11, 18, 60, 71},
    {53, 86, 89},
    {34, 43, 98},
    {34, 42, 98},
    {6, 67, 72},
    {53, 62, 75},
    {11, 18, 28, 51},
    {13, 42, 63},
    {10, 21, 23, 35},
    {16, 31, 35, 65},
    {36, 54, 56},
    {8, 9, 46},
    {6, 14, 90},
    {41, 70, 86, 89},
    {36, 50, 56},
    {36, 87, 96},
    {36, 45, 50, 54},
    {28, 79, 91, 92},
    {17, 19, 84},
    {1, 12, 20, 66},
    {7, 11, 64, 69},
    {5, 29, 66},
    {37, 64, 69},
    {13, 25, 47},
    {60, 62, 69},
    {14, 31, 49},
    {5, 61, 74},
    {44, 72, 94},
    {4, 28, 32, 81},
    {60, 62, 64},
    {77, 91, 93, 97},
    {60, 64, 69, 80},
    {44, 67, 94},
    {20, 30, 59, 85},
    {27, 31, 66, 84},
    {40, 55, 86, 87},
    {34, 39, 42, 90},
    {70, 91, 93},
    {13, 25, 63},
    {57, 91, 92},
    {26, 57, 65, 79},
    {32, 68, 100},
    {26, 38, 85, 95},
    {10, 23, 88},
    {17, 27, 93},
    {26, 38, 82},
    {41, 89, 96},
    {36, 55, 83, 96},
    {10, 23, 83},
    {22, 86, 96},
    {14, 15, 52},
    {79, 92, 93},
    {57, 79, 91},
    {17, 77, 91},
    {33, 44, 67, 72},
    {6, 29, 52},
    {22, 55, 89},
    {2, 24, 25},
    {34, 43, 94},
    {7, 24, 30},
    {32, 68, 81}
];
