n = 100;
allowed = [
    {24, 45, 66, 69, 75},
    {13, 24, 50, 58, 69, 80},
    {11, 39, 44, 60, 76},
    {35, 37, 47, 59, 93},
    {55, 73, 77, 85, 99},
    {14, 21, 53, 56, 81},
    {14, 32, 53, 78, 81},
    {3, 28, 46, 60, 76},
    {15, 16, 25, 26, 65},
    {9, 17, 52, 54, 72},
    {3, 39, 44, 60, 76},
    {7, 32, 51, 86, 98},
    {33, 36, 43, 64, 82, 100},
    {7, 49, 53, 78, 81},
    {9, 16, 26, 65, 97},
    {9, 15, 26, 65, 97},
    {10, 18, 37, 54, 95},
    {17, 25, 42, 48, 95},
    {38, 71, 79, 92, 96},
    {5, 55, 82, 85, 88},
    {6, 49, 53, 56, 81},
    {28, 31, 40, 62, 67},
    {22, 50, 61, 67, 91},
    {1, 2, 58, 69, 80},
    {9, 16, 26, 42, 65},
    {9, 15, 16, 25, 65},
    {16, 29, 34, 41, 94},
    {8, 11, 31, 46, 76},
    {27, 34, 41, 84, 94},
    {7, 14, 32, 53, 56},
    {8, 28, 57, 74, 76, 89},
    {7, 12, 14, 30, 86},
    {13, 36, 43, 82, 100},
    {16, 27, 29, 41, 94},
    {4, 37, 47, 59, 93},
    {13, 33, 43, 73, 83},
    {2, 17, 54, 69, 80},
    {19, 71, 76, 79, 92},
    {3, 11, 44, 57, 60},
    {22, 31, 62, 87, 89},
    {27, 29, 34, 76, 84, 94},
    {9, 18, 25, 65, 95},
    {13, 33, 36, 82, 100},
    {3, 11, 39, 57, 60},
    {55, 66, 70, 75, 99},
    {3, 8, 28, 30, 60, 83},
    {4, 34, 35, 37, 59, 93},
    {17, 18, 37, 42, 95},
    {14, 21, 78, 81, 87},
    {2, 24, 58, 69, 91},
    {12, 52, 61, 63, 98},
    {10, 50, 51, 72, 98},
    {6, 21, 30, 56, 81},
    {2, 10, 17, 72, 80},
    {5, 70, 77, 85, 99},
    {6, 21, 30, 53, 81},
    {3, 11, 39, 44, 60, 86},
    {2, 24, 50, 69, 80},
    {1, 4, 35, 47, 75},
    {3, 11, 39, 44, 76, 82},
    {23, 51, 62, 67, 98},
    {22, 40, 61, 67, 87},
    {15, 72, 84, 86, 97},
    {20, 33, 82, 88, 100},
    {9, 15, 16, 22, 25, 26},
    {1, 45, 70, 75, 90},
    {22, 23, 40, 62, 83},
    {32, 70, 73, 77, 90, 99},
    {2, 24, 50, 58, 80},
    {66, 68, 77, 90, 99},
    {11, 16, 19, 38, 60, 76},
    {9, 10, 52, 54, 63},
    {5, 55, 68, 77, 99},
    {31, 79, 87, 89, 96},
    {1, 45, 66, 70, 99},
    {3, 8, 11, 28, 60},
    {55, 68, 70, 90, 99},
    {7, 14, 49, 81, 87},
    {19, 74, 89, 92, 96},
    {2, 24, 54, 58, 69},
    {7, 14, 49, 53, 78},
    {5, 13, 33, 43, 100},
    {8, 28, 36, 46, 67},
    {15, 16, 29, 63, 97},
    {5, 20, 55, 88, 99},
    {7, 12, 30, 32, 63, 91},
    {40, 49, 74, 78, 89},
    {4, 5, 20, 45, 55, 85},
    {31, 40, 74, 79, 87},
    {66, 70, 77, 91, 99},
    {23, 50, 68, 70, 85, 90},
    {19, 38, 74, 79, 96},
    {4, 35, 47, 48, 59},
    {27, 29, 34, 41, 84},
    {17, 18, 25, 42, 48},
    {19, 74, 79, 89, 92},
    {15, 16, 26, 63, 84},
    {12, 51, 52, 61, 62},
    {55, 68, 70, 77, 90},
    {5, 13, 33, 43, 82}
];
