n = 30;
allowed = [
    {14, 23, 25},
    {11, 13, 24},
    {8, 12, 19},
    {6, 11, 15, 30},
    {4, 20, 28, 30},
    {11, 15, 24},
    {15, 26, 29},
    {3, 19, 25},
    {17, 22, 25, 29},
    {16, 18, 21},
    {2, 12, 13, 24},
    {3, 15, 29},
    {2, 11, 24},
    {1, 17, 25},
    {6, 7, 26},
    {10, 18, 21},
    {9, 22, 25},
    {10, 21, 27},
    {3, 8, 20, 25},
    {5, 28, 30},
    {10, 18, 30},
    {9, 17, 23},
    {1, 22, 27},
    {2, 11, 13},
    {1, 14, 17},
    {7, 15, 29},
    {18, 23, 30},
    {21, 27, 30},
    {7, 12, 26},
    {18, 21, 28}
];
