n = 20;
allowed = [
    {2, 7, 10, 12, 14, 15, 20},
    {1, 7, 12, 13, 14, 15, 20},
    {2, 6, 8, 9, 11, 13, 18},
    {5, 6, 11, 14, 16, 17, 19},
    {6, 11, 14, 15, 16, 17, 19},
    {2, 5, 10, 11, 14, 15, 16},
    {1, 2, 10, 12, 13, 15, 20},
    {2, 3, 4, 6, 9, 11, 13, 18},
    {2, 3, 6, 8, 11, 13, 18},
    {1, 7, 12, 14, 15, 16, 20},
    {3, 5, 6, 8, 9, 14, 18},
    {1, 2, 7, 10, 14, 15, 20},
    {2, 3, 7, 9, 14, 15, 20},
    {2, 6, 7, 10, 13, 15, 16},
    {2, 6, 7, 10, 13, 14, 16},
    {2, 5, 6, 7, 10, 14, 15},
    {4, 5, 6, 14, 15, 16, 19},
    {3, 5, 6, 8, 9, 11, 13},
    {4, 5, 6, 14, 15, 16, 17},
    {1, 2, 7, 10, 12, 14, 15, 17}
];
