n = 30;
allowed = [
    {12, 14, 17, 23, 25},
    {6, 11, 13, 24},
    {8, 12, 19, 29},
    {3, 6, 11, 15, 24},
    {1, 20, 21, 28, 30},
    {4, 11, 15, 24},
    {6, 15, 26, 29},
    {3, 14, 19, 25},
    {14, 17, 22, 24, 25},
    {16, 18, 21, 30},
    {2, 6, 13, 24},
    {3, 15, 26, 29, 30},
    {2, 6, 11, 24},
    {1, 9, 17, 25},
    {4, 6, 7, 26},
    {10, 18, 21, 27},
    {9, 14, 22, 25},
    {10, 16, 21, 27},
    {3, 7, 8, 14, 25},
    {5, 21, 28, 30},
    {10, 16, 18, 30},
    {9, 17, 23, 27},
    {1, 14, 22, 27},
    {2, 6, 11, 13},
    {1, 9, 14, 17},
    {6, 7, 15, 28, 29},
    {18, 22, 23, 30},
    {18, 20, 21, 27, 30},
    {1, 7, 12, 26},
    {10, 18, 21, 28}
];
