n = 100;
allowed = [
    {14, 72, 78, 80, 92},
    {11, 13, 24, 31, 93},
    {12, 46, 50, 63, 82},
    {38, 48, 53, 60, 71, 86},
    {20, 76, 81, 85, 89},
    {37, 53, 60, 86, 97},
    {26, 33, 54, 99, 100},
    {19, 47, 50, 77, 84},
    {17, 22, 32, 59, 64},
    {16, 18, 21, 34, 94},
    {13, 24, 48, 49, 96},
    {16, 46, 56, 63, 70, 73},
    {2, 11, 24, 31, 83},
    {1, 25, 64, 87, 92},
    {32, 33, 37, 53, 67, 97},
    {10, 18, 21, 34, 38},
    {9, 22, 25, 59, 64},
    {10, 16, 21, 27, 34},
    {8, 47, 50, 84, 87},
    {5, 55, 76, 81, 85},
    {10, 18, 30, 34, 94},
    {9, 17, 32, 59, 64},
    {27, 41, 64, 78, 95},
    {2, 11, 13, 31, 86},
    {14, 17, 59, 87, 92},
    {7, 33, 54, 67, 100},
    {18, 23, 32, 41, 95},
    {30, 36, 65, 89, 90},
    {40, 58, 70, 74, 75},
    {21, 28, 36, 89, 90},
    {2, 13, 24, 88, 93},
    {9, 22, 27, 59, 64},
    {15, 53, 54, 99, 100},
    {10, 18, 21, 30, 94},
    {36, 57, 65, 69, 74, 98},
    {8, 28, 30, 65, 90, 95},
    {6, 15, 60, 86, 97},
    {10, 16, 18, 21, 34},
    {11, 12, 48, 49, 83, 96},
    {1, 29, 31, 72, 78, 80},
    {1, 23, 62, 78, 80, 95},
    {46, 66, 68, 82, 93},
    {2, 44, 61, 71, 99, 100},
    {43, 45, 61, 62, 79},
    {44, 52, 55, 76, 79},
    {63, 66, 73, 82, 88},
    {8, 19, 41, 50, 84, 87},
    {4, 11, 39, 49, 96},
    {11, 13, 39, 83, 96},
    {3, 8, 19, 47, 87},
    {15, 37, 56, 67, 73},
    {44, 45, 55, 76, 77, 79},
    {15, 33, 54, 97, 99},
    {7, 33, 71, 99, 100},
    {45, 69, 76, 79, 91},
    {12, 51, 63, 73, 88},
    {35, 65, 69, 74, 75},
    {29, 51, 70, 74, 75},
    {9, 17, 22, 25, 64},
    {6, 37, 53, 86, 97},
    {43, 44, 79, 91, 98},
    {43, 44, 61, 71, 99},
    {3, 12, 46, 56, 73},
    {9, 17, 22, 32, 59},
    {28, 35, 36, 57, 74},
    {42, 46, 63, 82, 93},
    {7, 15, 26, 33, 51},
    {39, 42, 66, 77, 82, 84},
    {35, 55, 79, 91, 98},
    {12, 29, 51, 58, 75},
    {33, 53, 54, 99, 100},
    {1, 40, 78, 80, 92},
    {46, 51, 56, 63, 88},
    {29, 35, 57, 58, 75},
    {26, 29, 58, 70, 74},
    {5, 20, 45, 52, 55},
    {8, 19, 47, 68, 84},
    {1, 23, 41, 80, 92},
    {44, 45, 55, 69, 91},
    {1, 40, 41, 72, 78},
    {5, 20, 85, 89, 90},
    {3, 11, 42, 46, 63, 66},
    {11, 13, 39, 49, 96},
    {8, 19, 47, 68, 77},
    {5, 30, 69, 81, 89, 90},
    {6, 24, 37, 60, 97},
    {1, 14, 25, 50, 92},
    {37, 46, 51, 56, 73},
    {28, 30, 81, 85, 90},
    {28, 30, 36, 65, 89},
    {35, 55, 69, 79, 98},
    {1, 14, 72, 78, 87},
    {2, 31, 42, 52, 66, 88},
    {10, 18, 21, 30, 34, 45},
    {23, 27, 36, 41, 78},
    {11, 39, 48, 49, 83},
    {6, 15, 37, 60, 86},
    {35, 61, 69, 79, 91},
    {7, 33, 54, 71, 100},
    {7, 26, 27, 33, 54, 99}
];
