n = 50;
allowed = [
    {3, 10, 23, 39, 41},
    {7, 10, 23, 37, 45},
    {1, 10, 23, 39, 41},
    {9, 11, 21, 33, 44},
    {9, 15, 17, 33, 36},
    {8, 12, 22, 29, 48},
    {10, 30, 37, 45, 50},
    {6, 12, 13, 29, 46, 48},
    {4, 5, 17, 33, 36},
    {2, 7, 30, 37, 45},
    {4, 28, 30, 31, 44},
    {6, 22, 29, 47, 48},
    {8, 27, 32, 34, 48},
    {16, 26, 35, 43, 50},
    {18, 21, 25, 36, 49},
    {7, 14, 26, 43, 50},
    {5, 9, 15, 33, 36},
    {15, 20, 21, 25, 49},
    {6, 8, 24, 29, 46},
    {18, 25, 38, 42, 47},
    {4, 9, 33, 44, 49},
    {6, 12, 29, 47, 48},
    {1, 3, 10, 39, 41},
    {3, 8, 13, 19, 29, 46},
    {15, 18, 21, 47, 49},
    {14, 16, 35, 40, 43},
    {13, 14, 32, 34, 50},
    {10, 11, 30, 31, 39},
    {6, 8, 12, 22, 48},
    {7, 10, 28, 31, 37},
    {10, 11, 28, 30, 37},
    {8, 13, 27, 34, 48},
    {4, 5, 9, 17, 34, 36},
    {8, 13, 27, 32, 50},
    {14, 26, 40, 43, 48},
    {4, 5, 9, 17, 33},
    {2, 7, 10, 27, 30, 45},
    {18, 20, 25, 41, 42, 47},
    {1, 3, 10, 23, 41, 44},
    {14, 16, 26, 35, 43},
    {1, 3, 10, 23, 39},
    {20, 22, 25, 38, 47},
    {12, 14, 16, 26, 35, 40},
    {2, 4, 11, 16, 21, 49},
    {2, 7, 10, 37, 50},
    {8, 13, 19, 24, 29},
    {12, 22, 25, 40, 49},
    {6, 8, 22, 29, 35},
    {15, 21, 25, 43, 44},
    {7, 14, 16, 26, 45}
];
