n = 100;
allowed = [
    {4, 27, 28, 52, 64},
    {4, 35, 66, 97, 99},
    {15, 16, 24, 51, 54},
    {1, 2, 27, 64, 99},
    {21, 26, 58, 62, 63, 67},
    {31, 55, 60, 65, 66},
    {9, 22, 47, 48, 50, 85},
    {10, 28, 75, 76, 81},
    {7, 47, 48, 50, 90},
    {56, 75, 76, 79, 81},
    {3, 16, 36, 51, 91},
    {8, 46, 52, 75, 76, 87},
    {22, 24, 37, 74, 95},
    {17, 43, 45, 83, 85},
    {3, 16, 22, 24, 54},
    {3, 15, 54, 77, 91, 94},
    {20, 41, 50, 82, 83},
    {22, 37, 70, 74, 87},
    {10, 32, 56, 79, 80},
    {17, 39, 41, 82, 83},
    {34, 42, 63, 71, 92},
    {15, 24, 37, 54, 74},
    {25, 30, 46, 62, 71, 100},
    {13, 15, 22, 37, 54},
    {23, 30, 46, 71, 98},
    {59, 68, 69, 77, 86},
    {1, 4, 28, 52, 64},
    {1, 8, 27, 52, 64},
    {39, 41, 49, 88, 96},
    {23, 25, 46, 72, 100},
    {6, 55, 60, 65, 66},
    {19, 33, 40, 78, 84},
    {19, 32, 40, 72, 78, 84},
    {21, 42, 71, 80, 92},
    {2, 4, 66, 97, 99},
    {55, 61, 65, 93, 97},
    {18, 22, 70, 74, 87},
    {7, 13, 44, 89, 95},
    {20, 29, 41, 88, 96},
    {32, 33, 58, 67, 84},
    {17, 20, 29, 39, 82},
    {21, 34, 71, 80, 92},
    {14, 17, 45, 53, 82, 83},
    {38, 51, 54, 89, 90},
    {14, 17, 43, 82, 83},
    {23, 30, 71, 72, 100},
    {7, 9, 48, 50, 85},
    {7, 9, 47, 50, 85},
    {29, 57, 73, 88, 96},
    {9, 17, 47, 48, 85},
    {3, 16, 44, 89, 91},
    {1, 12, 27, 28, 64},
    {29, 39, 62, 82, 88, 96},
    {3, 15, 16, 22, 24},
    {59, 60, 61, 68, 94},
    {10, 19, 75, 79, 81},
    {49, 73, 80, 88, 90, 98},
    {5, 40, 63, 67, 84},
    {26, 61, 68, 77, 94},
    {6, 31, 55, 59, 61},
    {55, 59, 60, 68, 94},
    {5, 29, 53, 88, 96},
    {5, 21, 34, 42, 67},
    {1, 4, 27, 28, 52},
    {6, 31, 55, 66, 97},
    {6, 31, 60, 65, 81, 97},
    {40, 42, 58, 80, 92},
    {55, 59, 61, 77, 94},
    {26, 59, 68, 76, 77, 86},
    {18, 37, 74, 86, 87},
    {21, 23, 25, 30, 34},
    {23, 30, 46, 93, 100},
    {9, 49, 57, 88, 98},
    {13, 18, 22, 37, 87},
    {8, 10, 56, 76, 79},
    {8, 10, 12, 75, 79},
    {16, 59, 68, 86, 94},
    {19, 32, 33, 40, 84},
    {10, 19, 56, 75, 76},
    {19, 34, 42, 79, 84, 92},
    {8, 10, 56, 75, 79},
    {17, 20, 39, 41, 83},
    {14, 17, 41, 43, 82},
    {32, 33, 40, 58, 78},
    {7, 9, 47, 48, 50},
    {15, 22, 24, 70, 77},
    {13, 18, 32, 37, 70, 74},
    {29, 39, 41, 49, 73, 96},
    {3, 38, 44, 51, 54},
    {9, 38, 44, 47, 60, 89},
    {3, 11, 44, 51, 89},
    {21, 34, 42, 67, 80},
    {14, 30, 36, 72, 97, 100},
    {16, 59, 61, 68, 77},
    {13, 24, 38, 44, 89},
    {29, 39, 41, 49, 88},
    {2, 35, 36, 65, 93},
    {23, 25, 57, 71, 73},
    {2, 4, 35, 64, 92, 97},
    {23, 25, 30, 46, 72}
];
