n = 100;
allowed = [
    {14, 40, 64, 72, 78, 80, 92},
    {11, 13, 24, 31, 49, 83, 93},
    {12, 46, 50, 63, 72, 82, 87},
    {6, 48, 53, 60, 71, 86, 99},
    {20, 45, 55, 76, 81, 85, 89},
    {15, 24, 37, 53, 60, 86, 97},
    {26, 33, 54, 67, 71, 99, 100},
    {19, 47, 50, 68, 77, 84, 87},
    {14, 17, 22, 25, 32, 59, 64},
    {16, 18, 21, 30, 34, 38, 94},
    {13, 24, 39, 48, 49, 83, 96},
    {3, 29, 46, 56, 63, 70, 73},
    {2, 11, 16, 24, 31, 39, 49, 83},
    {1, 17, 25, 59, 64, 86, 87, 92},
    {33, 37, 51, 53, 54, 67, 97},
    {10, 18, 21, 27, 34, 38, 94},
    {9, 14, 22, 25, 32, 59, 64},
    {10, 16, 21, 27, 30, 34, 94},
    {3, 8, 47, 50, 77, 84, 87},
    {5, 45, 55, 76, 81, 85, 89},
    {10, 16, 18, 28, 30, 34, 94},
    {9, 17, 23, 27, 32, 59, 64},
    {1, 27, 32, 41, 64, 78, 95},
    {2, 6, 11, 13, 31, 60, 86},
    {1, 14, 17, 59, 64, 87, 92},
    {7, 33, 54, 67, 75, 99, 100},
    {18, 23, 30, 32, 36, 41, 95},
    {27, 30, 36, 65, 85, 89, 90},
    {12, 40, 58, 70, 74, 75, 80},
    {21, 28, 34, 36, 89, 90, 94},
    {2, 6, 11, 13, 24, 88, 93},
    {9, 22, 23, 27, 59, 64, 95},
    {7, 15, 53, 54, 71, 84, 99, 100},
    {10, 16, 18, 21, 30, 85, 94},
    {57, 65, 69, 74, 90, 91, 98},
    {27, 28, 30, 41, 65, 90, 95},
    {6, 15, 51, 53, 60, 86, 97},
    {10, 16, 18, 21, 32, 34, 94},
    {11, 13, 24, 48, 49, 83, 96},
    {1, 29, 41, 72, 78, 80, 92},
    {1, 23, 27, 49, 64, 78, 80, 95},
    {3, 46, 63, 66, 68, 82, 93},
    {44, 54, 61, 71, 98, 99, 100},
    {43, 45, 52, 55, 61, 62, 79},
    {5, 20, 44, 52, 55, 76, 79},
    {42, 56, 63, 66, 73, 82, 88},
    {3, 8, 19, 50, 77, 84, 87},
    {4, 11, 39, 49, 83, 86, 96},
    {11, 13, 24, 39, 48, 83, 96},
    {3, 8, 19, 47, 77, 84, 87},
    {15, 26, 37, 56, 67, 70, 73},
    {20, 40, 44, 45, 55, 61, 76, 79},
    {6, 15, 33, 37, 54, 97, 99},
    {7, 26, 33, 53, 71, 99, 100},
    {5, 45, 69, 76, 79, 91, 98},
    {12, 46, 51, 63, 70, 73, 88},
    {35, 58, 65, 69, 74, 75, 98},
    {12, 26, 29, 51, 70, 74, 75},
    {9, 14, 17, 22, 25, 32, 64},
    {6, 15, 24, 37, 53, 86, 97},
    {43, 44, 62, 69, 79, 91, 98},
    {13, 43, 44, 61, 71, 79, 99, 100},
    {3, 12, 46, 56, 70, 73, 88},
    {9, 14, 17, 22, 23, 32, 59},
    {28, 35, 36, 41, 57, 74, 90},
    {42, 46, 63, 73, 82, 88, 93},
    {7, 15, 26, 33, 37, 51, 53},
    {3, 42, 50, 66, 77, 82, 84},
    {35, 55, 57, 61, 79, 91, 98},
    {12, 29, 51, 56, 58, 74, 75},
    {7, 33, 43, 53, 54, 99, 100},
    {1, 29, 40, 78, 80, 87, 92},
    {12, 37, 46, 51, 56, 63, 88},
    {29, 35, 57, 58, 65, 70, 75},
    {26, 29, 51, 58, 67, 70, 74},
    {5, 20, 45, 52, 55, 79, 81},
    {8, 19, 47, 50, 68, 82, 84},
    {1, 23, 40, 41, 72, 80, 92},
    {44, 45, 55, 61, 69, 91, 98},
    {1, 29, 40, 41, 72, 78, 92},
    {5, 20, 28, 76, 85, 89, 90},
    {3, 12, 42, 46, 63, 66, 68},
    {11, 13, 24, 39, 48, 49, 96},
    {3, 8, 19, 47, 50, 62, 68, 77},
    {5, 20, 28, 30, 81, 89, 90},
    {6, 11, 24, 37, 53, 60, 97},
    {1, 14, 25, 47, 50, 72, 92},
    {37, 46, 51, 56, 63, 73, 97},
    {5, 20, 28, 30, 81, 85, 90},
    {28, 30, 36, 65, 81, 85, 89},
    {35, 55, 57, 61, 69, 79, 98},
    {1, 14, 40, 72, 78, 80, 87},
    {2, 13, 31, 42, 46, 66, 88},
    {10, 16, 18, 21, 30, 34, 57, 85},
    {23, 27, 32, 36, 41, 64, 78},
    {4, 11, 39, 48, 49, 83, 86},
    {6, 15, 18, 37, 51, 53, 60, 86},
    {35, 43, 55, 61, 69, 79, 91},
    {7, 26, 33, 53, 54, 71, 100},
    {7, 26, 33, 43, 54, 71, 99}
];
