n = 20;
allowed = [
    {7, 8, 10, 14, 15, 17},
    {9, 11, 12, 13, 15, 19},
    {4, 7, 9, 17, 18},
    {3, 6, 7, 9, 17, 18},
    {6, 8, 16, 17, 18},
    {5, 7, 16, 17, 18},
    {1, 3, 4, 16, 17},
    {11, 12, 13, 19, 20},
    {3, 4, 7, 17, 18},
    {1, 7, 14, 15, 17},
    {2, 8, 12, 13, 19},
    {8, 11, 13, 19, 20},
    {8, 11, 12, 19, 20},
    {1, 2, 7, 10, 15},
    {1, 2, 11, 14, 16},
    {6, 7, 8, 15, 17},
    {1, 3, 6, 7, 16},
    {3, 4, 6, 7, 17},
    {2, 8, 11, 12, 13},
    {8, 11, 12, 13, 19}
];
