n = 50;
allowed = [
    {11, 21, 22, 41, 48},
    {24, 29, 34, 50},
    {13, 18, 27, 49},
    {5, 42, 43, 44, 47},
    {4, 6, 42, 47},
    {5, 19, 30, 33},
    {12, 14, 38, 43},
    {4, 21, 44, 47},
    {18, 27, 37, 49},
    {7, 12, 36, 38, 46},
    {1, 17, 21, 43},
    {10, 14, 38, 46},
    {3, 6, 27, 30},
    {7, 26, 38, 43},
    {23, 28, 37, 48},
    {2, 24, 34, 46},
    {11, 20, 26, 43},
    {6, 9, 27, 49},
    {5, 6, 33, 42},
    {14, 17, 26, 33, 43},
    {8, 11, 44, 47},
    {1, 11, 40, 41},
    {9, 15, 25, 37, 49},
    {2, 16, 34, 46, 47},
    {2, 29, 31, 45},
    {14, 17, 20, 43},
    {3, 9, 18, 49},
    {2, 29, 45, 50},
    {2, 25, 45, 50},
    {6, 13, 33, 36},
    {25, 29, 32, 46},
    {10, 25, 31, 41, 46},
    {6, 19, 30, 39, 42},
    {2, 16, 24, 46},
    {2, 24, 28, 40, 50},
    {13, 19, 30, 33},
    {9, 15, 23, 49},
    {7, 12, 14, 43},
    {10, 12, 14, 46, 50},
    {1, 11, 17, 22},
    {1, 21, 22, 47},
    {4, 5, 44, 47},
    {7, 14, 20, 26},
    {4, 5, 8, 47},
    {25, 28, 29, 50},
    {10, 12, 16, 38},
    {4, 8, 42, 44},
    {15, 28, 29, 45, 50},
    {3, 9, 18, 27},
    {2, 28, 29, 35}
];
