n = 100;
allowed = [
    {9, 51, 61, 73, 77},
    {20, 30, 42, 64, 89},
    {15, 35, 44, 50, 53},
    {23, 32, 34, 47, 75},
    {14, 18, 63, 76, 90},
    {24, 30, 49, 81, 89},
    {10, 20, 46, 62, 91},
    {28, 34, 55, 83, 84},
    {61, 73, 80, 87, 88},
    {7, 42, 46, 62, 91},
    {28, 31, 65, 67, 71, 99},
    {6, 24, 30, 42, 49},
    {17, 22, 67, 70, 100},
    {22, 29, 57, 68, 85, 96},
    {3, 28, 33, 53, 83},
    {22, 39, 54, 68, 96},
    {13, 31, 45, 67, 100},
    {5, 36, 39, 66, 90},
    {6, 25, 41, 49, 81},
    {52, 62, 64, 74, 93},
    {27, 48, 59, 86, 94},
    {13, 29, 68, 71, 85},
    {4, 25, 32, 47, 60},
    {6, 12, 19, 21, 30, 49},
    {19, 23, 32, 48, 59},
    {45, 82, 83, 84, 100},
    {47, 48, 59, 60, 86},
    {3, 15, 53, 55, 83},
    {14, 22, 57, 68, 85},
    {6, 49, 69, 81, 89},
    {9, 17, 45, 58, 65, 67},
    {4, 23, 25, 41, 79},
    {15, 54, 70, 96, 100},
    {4, 8, 43, 55, 75},
    {3, 43, 44, 50, 53, 56},
    {39, 66, 72, 93, 98},
    {11, 65, 77, 78, 99},
    {19, 24, 25, 42, 48, 49},
    {36, 66, 72, 74, 76, 98},
    {34, 43, 75, 87, 88},
    {19, 49, 79, 81, 95},
    {2, 12, 30, 64, 91},
    {4, 34, 40, 75, 88},
    {3, 35, 50, 53, 56},
    {26, 31, 70, 84, 100},
    {7, 10, 42, 62, 77, 91},
    {23, 27, 48, 59, 60},
    {25, 27, 47, 59, 60},
    {6, 19, 30, 41, 81},
    {3, 35, 44, 53, 56},
    {1, 9, 37, 73, 77},
    {20, 72, 74, 93, 98},
    {3, 15, 35, 44, 50},
    {13, 33, 70, 96, 100},
    {2, 8, 28, 34, 53, 83},
    {44, 50, 69, 79, 95},
    {14, 22, 29, 68, 85},
    {31, 65, 67, 82, 97},
    {27, 47, 48, 60, 86},
    {23, 27, 47, 48, 59},
    {1, 9, 12, 80, 87, 88},
    {7, 20, 52, 64, 93},
    {5, 14, 29, 57, 76},
    {2, 20, 30, 42, 89},
    {31, 58, 77, 78, 99},
    {18, 36, 39, 72, 90},
    {17, 31, 45, 58, 65},
    {16, 22, 29, 57, 85},
    {30, 56, 79, 89, 95},
    {17, 26, 33, 45, 100},
    {11, 22, 29, 57, 85},
    {39, 52, 66, 74, 98},
    {1, 9, 51, 61, 80},
    {39, 52, 72, 93, 98},
    {4, 23, 32, 34, 43},
    {5, 14, 29, 57, 63},
    {65, 78, 82, 97, 99},
    {1, 65, 77, 82, 97, 99},
    {41, 56, 69, 81, 95},
    {9, 61, 73, 87, 88},
    {6, 19, 41, 49, 95},
    {26, 58, 78, 84, 97},
    {15, 26, 28, 84, 100},
    {26, 45, 82, 83, 97},
    {14, 22, 29, 57, 71},
    {21, 27, 48, 59, 94},
    {1, 9, 61, 80, 88},
    {9, 40, 61, 80, 87},
    {5, 6, 30, 69, 81, 95},
    {5, 16, 18, 39, 66},
    {7, 10, 42, 46, 62},
    {27, 47, 59, 60, 85, 94},
    {20, 52, 62, 74, 98},
    {21, 27, 60, 86, 92},
    {41, 69, 79, 81, 89},
    {3, 33, 35, 38, 54, 70},
    {58, 77, 78, 82, 99},
    {39, 52, 72, 74, 93},
    {37, 65, 77, 78, 97},
    {17, 26, 33, 45, 70, 98}
];
