n = 50;
allowed = [
    {5, 10, 24, 26, 27, 41, 46, 48},
    {4, 5, 14, 27, 34, 45, 49},
    {8, 11, 13, 20, 23, 35, 42},
    {2, 14, 27, 28, 34, 45, 49},
    {1, 2, 9, 26, 31, 41, 46},
    {12, 17, 23, 29, 32, 38, 50},
    {4, 14, 16, 25, 28, 30, 45},
    {3, 11, 24, 30, 36, 42, 44},
    {5, 31, 34, 37, 39, 47, 49},
    {1, 24, 26, 36, 41, 46, 48},
    {8, 10, 24, 35, 36, 42, 48},
    {6, 17, 18, 29, 32, 38, 43},
    {3, 8, 11, 20, 35, 37, 42, 44},
    {2, 4, 19, 27, 28, 45, 49},
    {9, 13, 21, 22, 31, 33, 39, 40},
    {7, 10, 25, 28, 30, 36, 44},
    {6, 12, 20, 23, 29, 35, 50},
    {32, 37, 39, 40, 43, 46, 47},
    {14, 22, 27, 31, 34, 45, 49},
    {3, 11, 17, 23, 35, 48, 50},
    {9, 15, 31, 33, 37, 39, 40},
    {14, 19, 27, 31, 34, 45, 49},
    {6, 11, 17, 20, 35, 48, 50},
    {1, 10, 11, 36, 41, 46, 48},
    {1, 4, 7, 14, 16, 27, 28, 45},
    {1, 2, 5, 10, 41, 46, 48},
    {2, 4, 14, 19, 34, 45, 49},
    {2, 4, 7, 14, 25, 27, 45},
    {6, 12, 17, 18, 32, 38, 43},
    {8, 10, 16, 25, 36, 42, 44},
    {2, 5, 9, 34, 39, 47, 49},
    {12, 18, 29, 37, 40, 43, 47},
    {9, 15, 19, 21, 22, 31, 39},
    {2, 9, 19, 22, 27, 31, 49},
    {3, 11, 20, 23, 24, 42, 50},
    {8, 10, 11, 24, 30, 44, 48},
    {9, 18, 32, 38, 39, 43, 46, 47},
    {6, 12, 18, 25, 29, 32, 40, 43},
    {5, 9, 21, 31, 34, 37, 47},
    {18, 21, 32, 37, 38, 39, 43},
    {1, 5, 10, 24, 26, 46, 48},
    {3, 8, 11, 24, 30, 36, 44},
    {18, 32, 37, 39, 40, 46, 47},
    {8, 10, 16, 22, 24, 30, 36, 42},
    {2, 4, 14, 19, 27, 28, 49},
    {1, 5, 26, 37, 41, 47, 48},
    {1, 5, 9, 18, 37, 39, 46},
    {1, 10, 11, 24, 26, 41, 46},
    {2, 19, 22, 27, 31, 34, 45},
    {6, 12, 17, 20, 23, 29, 35, 44}
];
