n = 50;
allowed = [
    {14, 23, 25, 40, 41},
    {11, 13, 22, 24, 31, 49},
    {12, 40, 46, 47, 50},
    {6, 15, 33, 37, 48},
    {20, 28, 30, 44, 45},
    {4, 11, 15, 24, 37},
    {15, 26, 33, 35, 43},
    {3, 19, 25, 47, 50},
    {14, 17, 22, 25, 32},
    {16, 18, 20, 21, 30, 34},
    {13, 24, 39, 48, 49},
    {3, 29, 37, 40, 46},
    {2, 11, 24, 31, 49},
    {1, 9, 17, 23, 25},
    {6, 7, 26, 33, 37},
    {10, 18, 21, 34, 38},
    {9, 14, 22, 25, 28, 32},
    {10, 16, 21, 27, 34},
    {3, 8, 25, 47, 50},
    {5, 28, 30, 44, 45},
    {10, 16, 18, 30, 34},
    {9, 17, 23, 27, 32},
    {1, 27, 32, 36, 41},
    {2, 6, 11, 13, 31},
    {1, 9, 14, 17, 22},
    {7, 15, 29, 33, 37},
    {18, 23, 32, 36, 41},
    {21, 27, 30, 35, 36},
    {12, 26, 35, 40, 41},
    {18, 21, 28, 34, 36},
    {2, 6, 11, 13, 24},
    {9, 17, 22, 23, 27},
    {6, 7, 15, 26, 37},
    {10, 16, 18, 21, 30},
    {7, 26, 28, 29, 36},
    {23, 27, 28, 30, 41},
    {6, 15, 24, 31, 33},
    {10, 16, 18, 21, 34},
    {11, 13, 24, 48, 49},
    {1, 12, 14, 29, 41},
    {1, 23, 27, 36, 40},
    {2, 3, 12, 31, 46},
    {7, 15, 26, 33, 44},
    {5, 7, 20, 43, 45},
    {5, 20, 35, 43, 44},
    {3, 12, 31, 37, 42},
    {3, 5, 8, 19, 25, 50},
    {4, 11, 24, 39, 49},
    {11, 13, 24, 39, 48},
    {3, 8, 14, 19, 47}
];
