n = 30;
allowed = [
    {3, 4, 10, 16, 17},
    {23, 24, 27, 28, 30},
    {1, 5, 10, 16, 17},
    {1, 6, 13, 14, 29},
    {10, 15, 16, 17, 20},
    {4, 13, 14, 21, 26},
    {4, 14, 15, 17, 29},
    {12, 18, 23, 24, 30},
    {5, 10, 19, 20, 25},
    {3, 5, 16, 17, 20},
    {6, 13, 21, 22, 23, 26},
    {8, 18, 21, 22, 30},
    {6, 11, 21, 22, 26},
    {3, 4, 6, 13, 26, 29},
    {1, 3, 5, 12, 16, 17},
    {1, 3, 5, 10, 17},
    {1, 3, 5, 10, 16},
    {1, 12, 13, 21, 22},
    {5, 7, 9, 10, 20, 25},
    {2, 5, 10, 19, 25, 27},
    {6, 11, 13, 18, 22},
    {11, 12, 13, 18, 21},
    {2, 24, 27, 28, 30},
    {2, 23, 27, 28, 30},
    {5, 9, 19, 20, 27},
    {6, 11, 13, 14, 21},
    {2, 23, 24, 25, 28, 30},
    {2, 23, 24, 27, 30},
    {1, 4, 6, 7, 14},
    {8, 23, 24, 27, 28}
];
