n = 30;
allowed = [
    {9, 11, 26},
    {6, 10, 20, 30},
    {15, 20, 26, 28},
    {8, 23, 25},
    {14, 18, 29},
    {12, 24, 30},
    {2, 10, 20},
    {4, 26, 28},
    {1, 8, 11, 26},
    {2, 6, 7, 20},
    {13, 16, 17, 22},
    {6, 17, 24, 30},
    {17, 22, 26},
    {1, 5, 22, 29},
    {3, 26, 28},
    {3, 13, 22, 29},
    {13, 22, 26},
    {5, 14, 16},
    {6, 18, 25, 30},
    {2, 7, 30},
    {23, 25, 27},
    {13, 14, 29},
    {4, 19, 25},
    {6, 12, 30},
    {19, 23, 27},
    {13, 15, 17},
    {21, 23, 25},
    {3, 8, 15},
    {14, 16, 22},
    {6, 12, 24}
];
