n = 100;
allowed = [
    {2, 15, 21, 30, 32, 68, 72},
    {1, 15, 21, 30, 65, 68, 72, 78},
    {4, 30, 46, 63, 64, 84, 87},
    {9, 32, 71, 80, 86, 87, 93, 99},
    {11, 28, 36, 44, 48, 52, 70},
    {17, 20, 35, 45, 56, 59, 60},
    {12, 26, 31, 40, 41, 55, 58},
    {16, 39, 49, 57, 81, 83, 88},
    {4, 14, 53, 54, 71, 87, 99},
    {19, 67, 69, 74, 82, 90, 100},
    {5, 37, 51, 66, 70, 73, 96},
    {7, 27, 31, 40, 41, 78, 94},
    {29, 51, 56, 60, 73, 75, 96, 100},
    {4, 9, 53, 54, 70, 71, 87, 99},
    {1, 2, 21, 29, 32, 68, 72},
    {34, 39, 43, 49, 57, 83, 88},
    {6, 20, 35, 42, 45, 59, 97},
    {33, 69, 79, 81, 90, 91, 100},
    {10, 24, 25, 26, 55, 74, 85},
    {6, 17, 35, 44, 52, 56, 97},
    {1, 15, 29, 32, 68, 73, 80},
    {4, 37, 66, 71, 85, 86, 93, 99},
    {38, 40, 58, 76, 77, 78, 94},
    {10, 19, 25, 26, 55, 74, 85},
    {19, 24, 26, 55, 62, 79, 85},
    {7, 19, 24, 25, 31, 55, 85},
    {31, 63, 64, 65, 74, 82, 84},
    {36, 44, 48, 52, 61, 89, 98},
    {13, 21, 51, 73, 75, 80, 96},
    {1, 2, 15, 21, 32, 64, 68},
    {7, 12, 19, 26, 27, 41, 85},
    {1, 15, 21, 30, 68, 73, 80},
    {18, 69, 79, 81, 90, 91, 100},
    {16, 39, 49, 57, 67, 83, 88},
    {6, 17, 20, 42, 56, 61, 97},
    {28, 44, 48, 49, 52, 61, 97, 98},
    {11, 22, 66, 71, 86, 93, 99},
    {40, 58, 62, 77, 92, 94, 95},
    {8, 16, 34, 49, 57, 83, 88, 94},
    {7, 23, 38, 41, 58, 78, 94},
    {7, 12, 31, 40, 43, 76, 78, 94},
    {17, 35, 52, 61, 89, 97, 98},
    {16, 34, 39, 46, 49, 53, 57},
    {28, 36, 48, 52, 61, 97, 98},
    {6, 17, 20, 35, 37, 47, 50, 59},
    {3, 43, 53, 63, 64, 84, 87},
    {6, 17, 45, 50, 59, 76, 78},
    {5, 28, 36, 44, 52, 61, 70},
    {8, 16, 34, 39, 57, 83, 88},
    {6, 41, 45, 47, 59, 76, 78},
    {13, 21, 29, 73, 75, 80, 96},
    {28, 36, 44, 61, 89, 97, 98},
    {3, 9, 14, 43, 46, 54, 87},
    {4, 9, 14, 53, 71, 87, 99},
    {7, 19, 24, 25, 26, 62, 85},
    {6, 13, 20, 35, 44, 52, 97},
    {34, 39, 49, 67, 83, 88, 100},
    {7, 38, 40, 62, 92, 94, 95},
    {6, 17, 35, 45, 47, 50, 76},
    {13, 15, 29, 51, 56, 72, 75},
    {36, 42, 44, 52, 89, 97, 98},
    {24, 25, 38, 55, 58, 92, 95},
    {1, 2, 27, 30, 64, 65, 84},
    {2, 3, 30, 46, 63, 65, 84},
    {1, 2, 27, 63, 64, 72, 84},
    {4, 22, 37, 71, 86, 93, 99},
    {10, 34, 57, 69, 74, 82, 100},
    {1, 15, 21, 29, 30, 32, 73},
    {10, 67, 74, 79, 81, 90, 100},
    {5, 11, 13, 45, 48, 51, 75, 96},
    {4, 14, 22, 66, 86, 93, 99},
    {1, 2, 15, 21, 60, 65, 68},
    {21, 29, 51, 68, 75, 80, 96},
    {10, 19, 67, 69, 82, 85, 100},
    {13, 21, 29, 51, 73, 80, 96},
    {23, 40, 47, 50, 59, 78, 94},
    {23, 38, 40, 58, 92, 94, 95},
    {12, 23, 40, 41, 50, 76, 94},
    {10, 18, 33, 69, 90, 91, 100},
    {21, 29, 32, 51, 73, 86, 96},
    {8, 18, 33, 69, 83, 88, 100},
    {10, 19, 27, 67, 69, 74, 84},
    {8, 16, 39, 49, 57, 81, 88},
    {3, 27, 46, 63, 64, 65, 82},
    {10, 19, 24, 25, 26, 54, 55, 74},
    {4, 32, 71, 73, 80, 93, 99},
    {3, 4, 14, 30, 46, 53, 64},
    {8, 16, 39, 49, 57, 81, 83},
    {36, 42, 44, 52, 61, 97, 98},
    {10, 18, 33, 69, 79, 81, 91},
    {18, 33, 40, 69, 79, 81, 90, 100},
    {38, 40, 58, 62, 77, 94, 95},
    {4, 22, 66, 71, 80, 86, 99},
    {23, 38, 40, 58, 76, 77, 78},
    {25, 38, 40, 55, 58, 62, 77, 92},
    {11, 21, 29, 51, 68, 73, 75, 80},
    {20, 35, 36, 42, 44, 52, 61},
    {36, 42, 44, 52, 61, 89, 97},
    {4, 22, 37, 66, 71, 86, 93},
    {10, 34, 57, 67, 69, 81, 88}
];
