n = 20;
allowed = [
    {3, 8, 9, 12, 14, 17, 19},
    {3, 4, 6, 11, 12, 13, 15},
    {1, 8, 12, 14, 15, 17, 19},
    {2, 6, 7, 11, 12, 13, 15},
    {1, 7, 10, 15, 16, 18, 20},
    {2, 4, 7, 11, 12, 13, 15},
    {2, 4, 6, 11, 12, 13, 15},
    {1, 3, 9, 12, 14, 17, 19},
    {1, 10, 14, 16, 17, 18, 19},
    {1, 5, 9, 16, 17, 18, 20},
    {2, 4, 6, 7, 12, 13, 15},
    {1, 2, 3, 6, 7, 14, 15},
    {2, 4, 6, 7, 11, 12, 15},
    {1, 3, 8, 9, 12, 17, 19},
    {2, 4, 6, 7, 11, 12, 13},
    {1, 5, 9, 10, 14, 17, 18},
    {1, 8, 9, 14, 16, 18, 19},
    {1, 5, 9, 10, 14, 16, 17},
    {1, 3, 6, 8, 9, 12, 14, 17},
    {1, 5, 7, 10, 15, 16, 18}
];
