n = 30;
allowed = [
    {2, 4, 5, 9, 10, 11, 18, 23, 24, 26, 27},
    {1, 4, 5, 9, 14, 19, 22, 26, 27, 28},
    {1, 8, 10, 11, 13, 17, 20, 23, 24, 30},
    {1, 2, 5, 14, 19, 22, 25, 26, 27, 28},
    {1, 2, 4, 9, 10, 14, 19, 24, 26, 27},
    {1, 3, 11, 12, 17, 18, 20, 23, 24, 29},
    {2, 4, 10, 14, 16, 25, 26, 27, 28, 30},
    {1, 3, 10, 11, 13, 16, 20, 24, 26, 30},
    {1, 2, 4, 5, 18, 19, 21, 22, 26, 27},
    {1, 2, 4, 5, 8, 11, 16, 24, 26, 30},
    {1, 3, 5, 8, 10, 20, 23, 24, 26, 30},
    {1, 6, 9, 11, 17, 18, 20, 21, 23, 29},
    {3, 8, 10, 11, 16, 17, 20, 23, 24, 30},
    {2, 4, 5, 9, 19, 22, 25, 26, 27, 28},
    {2, 5, 9, 13, 14, 18, 19, 21, 22, 26, 27},
    {2, 4, 7, 8, 10, 24, 25, 26, 28, 30},
    {1, 3, 6, 11, 12, 18, 20, 23, 24, 29},
    {1, 5, 9, 12, 17, 21, 23, 24, 26, 29},
    {2, 4, 5, 9, 14, 21, 22, 26, 27, 28},
    {1, 3, 6, 8, 10, 11, 15, 17, 18, 23, 24},
    {1, 2, 5, 9, 15, 18, 19, 22, 26, 27},
    {2, 4, 5, 9, 14, 19, 21, 26, 27, 28},
    {1, 3, 6, 11, 12, 17, 18, 20, 24, 29},
    {1, 3, 5, 8, 10, 11, 20, 23, 26, 30},
    {2, 4, 7, 10, 14, 16, 26, 27, 28, 30},
    {1, 2, 4, 5, 9, 10, 11, 18, 24, 27},
    {2, 4, 5, 9, 14, 19, 22, 25, 26, 28},
    {2, 4, 5, 7, 14, 16, 19, 25, 26, 27},
    {1, 6, 9, 11, 12, 17, 18, 20, 23, 24},
    {1, 7, 8, 10, 11, 14, 16, 24, 25, 26, 28}
];
