n = 100;
allowed = [
    {65, 71, 85},
    {17, 58, 69},
    {10, 16, 33, 71},
    {5, 40, 45, 67},
    {40, 45, 54, 80},
    {13, 63, 74},
    {27, 44, 49},
    {18, 43, 51},
    {37, 46, 49, 98},
    {3, 16, 33},
    {26, 50, 76},
    {31, 38, 95},
    {41, 64, 74},
    {7, 44, 49, 79},
    {23, 62, 89, 99},
    {10, 19, 33},
    {2, 78, 79},
    {8, 66, 91},
    {10, 16, 33},
    {23, 39, 55},
    {3, 61, 75},
    {81, 87, 88},
    {15, 20, 89},
    {46, 84, 98},
    {12, 16, 38},
    {11, 50, 76},
    {7, 35, 39},
    {45, 52, 89},
    {11, 36, 42, 62},
    {22, 32, 42, 99},
    {12, 38, 66, 95},
    {19, 22, 30},
    {3, 10, 16},
    {47, 72, 86},
    {27, 39, 57},
    {29, 42, 62},
    {9, 80, 98},
    {12, 25, 31},
    {27, 35, 55},
    {4, 5, 54},
    {13, 64, 74, 94},
    {29, 36, 83},
    {8, 51, 97},
    {7, 14, 49},
    {4, 5, 40},
    {24, 80, 98},
    {34, 60, 87},
    {52, 70, 82},
    {7, 14, 44},
    {11, 26, 76},
    {43, 96, 97},
    {28, 48, 89},
    {3, 14, 16, 69},
    {5, 40, 45},
    {20, 23, 24, 39},
    {32, 59, 60, 81},
    {35, 39, 73},
    {2, 17, 68, 69},
    {60, 87, 88},
    {59, 87, 88},
    {21, 48, 73},
    {15, 29, 36},
    {6, 13, 74},
    {41, 96, 97},
    {1, 71, 90},
    {6, 18, 74},
    {5, 29, 45, 91},
    {42, 77, 83},
    {2, 17, 78},
    {48, 75, 82},
    {1, 65, 90},
    {34, 86, 94, 100},
    {33, 36, 55, 61},
    {6, 13, 63, 69},
    {1, 21, 85},
    {12, 38, 50},
    {42, 54, 68, 83},
    {17, 69, 79},
    {2, 4, 17, 78},
    {9, 24, 41, 46},
    {22, 56, 88},
    {48, 52, 70},
    {36, 42, 92},
    {24, 27, 46, 96},
    {1, 71, 75},
    {34, 47, 72},
    {47, 59, 60},
    {22, 81, 87},
    {15, 23, 52},
    {1, 65, 71},
    {8, 18, 34, 43},
    {20, 23, 74, 83},
    {31, 95, 99},
    {34, 72, 86},
    {12, 31, 93},
    {51, 53, 64, 97},
    {51, 64, 96},
    {9, 37, 46},
    {30, 93, 95},
    {46, 84, 98}
];
