n = 30;
allowed = [
    {8, 9, 11, 13, 17, 26, 28},
    {6, 7, 10, 12, 20, 24, 30},
    {8, 13, 15, 17, 20, 26, 28},
    {8, 19, 21, 23, 25, 27, 28},
    {13, 14, 16, 17, 18, 22, 29},
    {2, 12, 19, 23, 24, 25, 30},
    {2, 6, 10, 12, 18, 20, 24, 30},
    {3, 4, 9, 15, 23, 26, 28},
    {1, 4, 8, 11, 17, 26, 28},
    {2, 6, 7, 12, 20, 24, 30},
    {1, 13, 14, 17, 22, 26, 29},
    {2, 6, 10, 19, 24, 25, 30},
    {11, 15, 16, 17, 22, 26, 29},
    {5, 11, 13, 16, 17, 22, 25, 29},
    {3, 8, 13, 16, 17, 26, 28},
    {5, 13, 14, 17, 18, 22, 29},
    {3, 11, 13, 15, 16, 22, 26},
    {5, 6, 13, 14, 16, 20, 22, 29},
    {6, 12, 23, 24, 25, 27, 30},
    {2, 3, 6, 7, 10, 12, 30},
    {4, 6, 19, 23, 24, 25, 27},
    {5, 11, 13, 14, 16, 17, 29},
    {4, 6, 8, 19, 25, 27, 28},
    {2, 6, 12, 19, 23, 25, 30},
    {4, 6, 19, 21, 23, 27, 30},
    {3, 8, 11, 13, 15, 17, 28},
    {4, 6, 19, 21, 23, 24, 25},
    {3, 4, 8, 15, 17, 23, 26},
    {5, 11, 13, 14, 16, 17, 22},
    {2, 6, 12, 19, 20, 24, 25}
];
