n = 20;
allowed = [
    {8, 9, 11, 13, 17},
    {6, 7, 10, 12, 20},
    {8, 13, 15, 17, 20},
    {3, 6, 8, 15, 19},
    {13, 14, 16, 17, 18},
    {2, 3, 12, 19, 20},
    {2, 6, 10, 12, 20},
    {1, 3, 4, 5, 9, 15},
    {1, 4, 8, 11, 17},
    {2, 6, 7, 12, 20},
    {1, 13, 14, 16, 17},
    {2, 6, 10, 19, 20},
    {11, 14, 15, 16, 17},
    {5, 10, 11, 13, 16, 17},
    {3, 8, 13, 16, 17},
    {5, 13, 14, 17, 18},
    {3, 11, 13, 15, 16},
    {5, 13, 14, 16, 20},
    {2, 3, 4, 6, 8, 12},
    {2, 3, 6, 7, 10}
];
