n = 100;
allowed = [
    {11, 15, 25, 36, 46, 55, 94},
    {5, 9, 39, 57, 73, 93, 99},
    {4, 16, 24, 26, 48, 51, 52},
    {3, 24, 26, 48, 51, 52, 68},
    {2, 9, 13, 22, 73, 93, 99},
    {18, 23, 42, 47, 75, 87, 96},
    {17, 33, 50, 59, 63, 80, 86},
    {12, 58, 71, 78, 80, 81, 86},
    {2, 5, 13, 22, 73, 93, 99},
    {21, 28, 31, 34, 87, 92, 96},
    {1, 15, 25, 36, 46, 55, 94},
    {8, 50, 58, 71, 78, 81, 86},
    {5, 9, 22, 41, 64, 72, 73, 93},
    {32, 43, 46, 55, 62, 76, 82},
    {1, 11, 25, 36, 46, 55, 94},
    {3, 4, 26, 31, 48, 52, 84},
    {7, 33, 35, 53, 69, 85, 91},
    {6, 23, 45, 47, 52, 75, 100},
    {1, 41, 64, 83, 86, 88, 94, 97},
    {38, 54, 61, 70, 77, 89, 90},
    {10, 26, 31, 34, 59, 84, 92},
    {5, 9, 13, 29, 64, 73, 74},
    {6, 31, 47, 52, 75, 87, 96},
    {3, 4, 16, 48, 51, 66, 68},
    {1, 11, 36, 46, 55, 88, 94},
    {3, 16, 31, 48, 52, 84, 87},
    {15, 32, 40, 42, 53, 55, 69, 91},
    {10, 34, 37, 60, 92, 96, 98},
    {9, 22, 30, 64, 72, 74, 95},
    {9, 22, 29, 57, 66, 74, 95, 99},
    {10, 21, 26, 52, 75, 87, 92},
    {27, 43, 46, 55, 62, 76, 82},
    {7, 17, 29, 50, 59, 63, 69, 80},
    {10, 21, 28, 50, 59, 67, 78},
    {7, 17, 33, 53, 69, 80, 85},
    {1, 11, 15, 25, 46, 55, 94},
    {10, 28, 42, 60, 92, 96, 98},
    {6, 20, 42, 54, 61, 77, 89},
    {2, 5, 51, 68, 73, 93, 100},
    {16, 27, 53, 66, 69, 84, 91},
    {9, 13, 19, 22, 64, 72, 83},
    {6, 20, 38, 54, 61, 77, 89},
    {14, 32, 46, 55, 62, 76, 82},
    {2, 45, 49, 57, 65, 79, 100},
    {18, 39, 44, 49, 65, 79, 100},
    {1, 11, 15, 25, 36, 55, 94, 98},
    {6, 23, 31, 52, 75, 87, 96},
    {3, 4, 16, 24, 26, 52, 84},
    {2, 44, 45, 57, 65, 79, 100},
    {7, 34, 59, 63, 78, 80, 86},
    {3, 4, 24, 39, 48, 68, 84, 100},
    {23, 26, 31, 47, 75, 87, 96},
    {17, 27, 35, 40, 69, 85, 91},
    {20, 38, 42, 61, 77, 89, 90},
    {11, 15, 25, 36, 46, 62, 76},
    {12, 34, 50, 59, 67, 71, 78},
    {2, 30, 49, 73, 74, 93, 99},
    {8, 12, 71, 78, 80, 81, 86},
    {7, 21, 34, 50, 63, 78, 86},
    {10, 28, 34, 37, 56, 67, 98},
    {20, 37, 38, 42, 54, 77, 89},
    {14, 25, 32, 36, 46, 55, 76},
    {7, 33, 50, 59, 78, 80, 86},
    {5, 9, 13, 22, 41, 72, 83},
    {18, 38, 44, 45, 49, 79, 100},
    {1, 11, 15, 24, 36, 40, 48, 91},
    {12, 34, 50, 56, 59, 71, 78},
    {3, 4, 24, 39, 48, 51, 100},
    {16, 17, 33, 40, 53, 84, 91},
    {20, 35, 38, 54, 61, 77, 89, 90},
    {8, 12, 50, 56, 67, 78, 81},
    {3, 22, 29, 41, 64, 74, 83, 95},
    {2, 5, 9, 13, 22, 93, 99},
    {9, 22, 29, 30, 73, 95, 99},
    {6, 23, 31, 47, 52, 87, 96},
    {25, 32, 43, 46, 55, 62, 82},
    {6, 20, 38, 42, 54, 61, 89},
    {12, 34, 50, 59, 67, 71, 86},
    {2, 39, 44, 45, 49, 65, 100},
    {7, 33, 50, 58, 59, 63, 86},
    {8, 12, 58, 62, 71, 78, 80, 86},
    {14, 32, 43, 46, 55, 62, 76},
    {13, 19, 22, 41, 64, 72, 97},
    {3, 16, 21, 26, 31, 48, 65, 69},
    {7, 17, 33, 35, 53, 69, 80},
    {7, 12, 50, 58, 63, 78, 80},
    {23, 26, 31, 47, 52, 75, 96},
    {1, 11, 19, 25, 36, 46, 94},
    {20, 38, 42, 54, 61, 77, 90},
    {20, 38, 54, 61, 70, 77, 89},
    {15, 17, 27, 40, 53, 66, 69},
    {10, 21, 26, 28, 31, 87, 96},
    {2, 5, 9, 13, 22, 73, 99},
    {1, 11, 15, 25, 36, 46, 88},
    {9, 22, 29, 30, 64, 72, 74},
    {6, 23, 31, 47, 52, 75, 87},
    {13, 19, 41, 64, 72, 83, 88},
    {10, 28, 34, 37, 60, 67, 96},
    {2, 5, 9, 57, 73, 74, 93},
    {2, 18, 39, 45, 49, 51, 79}
];
