n = 20;
allowed = [
    {3, 4, 10, 15, 16, 17, 18},
    {1, 3, 5, 10, 12, 16, 17, 20},
    {1, 5, 10, 15, 16, 17, 18},
    {1, 3, 6, 7, 13, 14, 17},
    {1, 3, 10, 15, 16, 17, 20},
    {1, 4, 11, 12, 13, 14, 18},
    {1, 3, 4, 14, 15, 16, 17},
    {1, 2, 10, 11, 12, 13, 18},
    {2, 5, 10, 15, 16, 19, 20},
    {1, 2, 3, 5, 16, 17, 20},
    {4, 6, 8, 12, 13, 14, 18},
    {1, 3, 6, 8, 11, 13, 18},
    {1, 4, 6, 11, 12, 14, 18},
    {1, 4, 6, 7, 11, 13, 18},
    {1, 3, 5, 7, 9, 10, 16, 17},
    {1, 3, 5, 10, 15, 17, 20},
    {1, 3, 5, 10, 15, 16, 20},
    {1, 3, 4, 6, 8, 12, 13},
    {2, 5, 9, 10, 11, 15, 16, 20},
    {2, 5, 9, 10, 16, 17, 19}
];
