n = 100;
allowed = [
    {7, 26, 41, 57},
    {4, 43, 80, 82},
    {55, 58, 65, 67},
    {27, 71, 82},
    {26, 41, 80},
    {17, 29, 50, 98},
    {3, 25, 28, 100},
    {42, 44, 84},
    {31, 39, 47},
    {24, 59, 78},
    {62, 88, 95},
    {29, 38, 99},
    {65, 76, 97},
    {27, 45, 71},
    {53, 74, 86},
    {29, 30, 70, 96},
    {6, 50, 66},
    {32, 43, 81},
    {22, 34, 51},
    {35, 72, 83, 86},
    {33, 61, 74},
    {19, 34, 51, 81},
    {20, 66, 77},
    {48, 63, 78},
    {16, 28, 100},
    {1, 5, 41},
    {4, 14, 45},
    {5, 25, 71, 100},
    {12, 68, 99},
    {44, 55, 64},
    {9, 34, 49},
    {18, 81, 89},
    {21, 75, 86},
    {19, 31, 49},
    {20, 60, 83},
    {64, 78, 96},
    {47, 51, 87, 91},
    {12, 52, 99},
    {9, 24, 31, 37},
    {52, 54, 85},
    {1, 5, 26},
    {8, 84, 88},
    {18, 87, 91},
    {30, 55, 64},
    {14, 27, 71, 80},
    {57, 93, 94},
    {37, 56, 93},
    {24, 63, 76, 90},
    {2, 31, 34},
    {17, 23, 66, 100},
    {19, 22, 34},
    {40, 54, 85},
    {15, 74, 86},
    {40, 73, 85},
    {6, 30, 44, 64},
    {46, 57, 93},
    {46, 93, 94},
    {60, 67, 69},
    {10, 36, 46, 78},
    {67, 72, 83},
    {21, 47, 73, 74},
    {11, 63, 95},
    {24, 48, 78},
    {36, 44, 96},
    {58, 69, 97},
    {17, 23, 50},
    {58, 60, 69},
    {12, 29, 99},
    {19, 58, 65, 97},
    {16, 25, 30},
    {4, 27, 82},
    {20, 60, 83},
    {61, 87, 91},
    {15, 21, 61},
    {21, 33, 70, 86},
    {3, 13, 98},
    {23, 66, 79},
    {10, 24, 63},
    {77, 81, 92},
    {2, 5, 82},
    {18, 32, 79},
    {2, 4, 71},
    {20, 60, 72},
    {8, 42, 88},
    {40, 42, 52, 54},
    {15, 33, 53},
    {37, 43, 91},
    {8, 11, 84},
    {32, 81, 92},
    {46, 57, 84, 94},
    {37, 43, 87},
    {79, 81, 89},
    {4, 46, 56, 57},
    {46, 90, 93},
    {11, 35, 62},
    {36, 59, 64},
    {58, 65, 69},
    {42, 76, 84, 85},
    {12, 29, 68},
    {7, 25, 28}
];
