n = 50;
allowed = [
    {6, 29, 32, 33, 34, 38},
    {12, 14, 18, 19, 47},
    {16, 17, 37, 39, 46},
    {8, 20, 34, 36, 43},
    {1, 6, 22, 27, 30},
    {1, 5, 22, 27, 32},
    {16, 17, 33, 35, 39},
    {4, 9, 13, 20, 43},
    {8, 10, 13, 20, 31},
    {9, 31, 35, 36, 49},
    {21, 26, 29, 32, 33},
    {2, 14, 18, 19, 47},
    {8, 9, 20, 31, 43},
    {2, 18, 19, 23, 44},
    {24, 25, 27, 45, 50},
    {3, 7, 17, 33, 39},
    {7, 16, 28, 37, 40},
    {2, 10, 14, 19, 44, 47},
    {2, 12, 14, 18, 47},
    {4, 8, 9, 36, 43},
    {11, 26, 29, 32, 33},
    {5, 6, 21, 30, 32},
    {2, 14, 18, 44, 48},
    {15, 41, 42, 45, 50},
    {5, 15, 27, 30, 50},
    {11, 15, 21, 29, 33, 40},
    {1, 5, 6, 22, 30},
    {3, 17, 37, 40, 46},
    {11, 21, 26, 32, 38},
    {5, 22, 25, 27, 47},
    {8, 9, 10, 13, 20, 41},
    {1, 11, 21, 29, 38},
    {7, 11, 16, 17, 40},
    {1, 4, 6, 38, 42},
    {7, 10, 16, 39, 49},
    {4, 10, 20, 35, 49},
    {3, 16, 17, 28, 42, 46},
    {1, 29, 32, 34, 36},
    {3, 7, 16, 35, 49},
    {7, 17, 26, 28, 33},
    {4, 24, 34, 42, 45},
    {4, 24, 34, 41, 45},
    {4, 8, 9, 13, 20, 45},
    {11, 14, 23, 26, 40},
    {15, 24, 27, 42, 48, 50},
    {3, 16, 17, 28, 37},
    {2, 5, 18, 22, 30},
    {14, 23, 28, 39, 40, 44},
    {9, 10, 31, 35, 36, 39},
    {15, 24, 25, 27, 45}
];
