n = 30;
allowed = [
    {3, 9, 12, 14, 17, 22, 23, 25, 27, 29},
    {3, 4, 6, 7, 11, 12, 13, 15, 24, 26},
    {1, 8, 12, 14, 15, 17, 19, 23, 25, 29},
    {2, 6, 7, 11, 12, 13, 15, 24, 26, 29},
    {7, 10, 18, 20, 21, 23, 26, 27, 28, 30},
    {1, 2, 4, 7, 11, 12, 13, 15, 24, 26, 29},
    {2, 4, 6, 11, 12, 15, 24, 26, 28, 29},
    {1, 3, 9, 12, 14, 17, 19, 22, 25, 29},
    {1, 10, 14, 16, 17, 18, 22, 23, 25, 27},
    {5, 9, 16, 18, 21, 22, 23, 27, 28, 30},
    {2, 4, 6, 7, 12, 13, 15, 24, 26, 29},
    {1, 2, 3, 6, 7, 14, 15, 24, 26, 29},
    {2, 4, 6, 7, 11, 12, 15, 24, 26, 29},
    {1, 3, 8, 9, 17, 19, 22, 23, 25, 27},
    {2, 4, 6, 7, 11, 12, 13, 24, 26, 29},
    {9, 10, 17, 18, 21, 22, 23, 27, 28, 30},
    {1, 8, 9, 14, 18, 19, 22, 23, 25, 27},
    {9, 10, 16, 17, 21, 22, 23, 27, 28, 30},
    {1, 3, 8, 9, 12, 14, 17, 20, 22, 25, 29},
    {5, 7, 10, 18, 21, 23, 26, 27, 28, 30},
    {5, 10, 16, 18, 20, 22, 23, 27, 28, 30},
    {1, 9, 10, 14, 16, 17, 18, 23, 25, 27},
    {1, 9, 14, 17, 18, 22, 25, 27, 28, 30},
    {2, 4, 6, 7, 11, 12, 13, 15, 26, 29},
    {1, 3, 8, 9, 14, 17, 19, 22, 23, 27},
    {3, 4, 6, 7, 11, 12, 15, 24, 28, 29},
    {1, 9, 10, 16, 18, 21, 22, 23, 28, 30},
    {5, 10, 16, 18, 20, 21, 23, 27, 29, 30},
    {1, 3, 6, 7, 12, 14, 15, 23, 26, 28},
    {5, 10, 16, 18, 20, 21, 22, 23, 27, 28}
];
