n = 100;
allowed = [
    {24, 66, 75},
    {24, 58, 69},
    {39, 44, 60},
    {35, 47, 93},
    {55, 73, 85},
    {8, 21, 53, 56},
    {14, 78, 81},
    {28, 46, 50, 76},
    {15, 25, 26},
    {52, 54, 71, 72},
    {3, 60, 76},
    {32, 51, 86},
    {33, 43, 100},
    {7, 57, 78, 81},
    {16, 26, 97},
    {15, 26, 65},
    {10, 37, 54},
    {42, 48, 59, 95},
    {38, 79, 92},
    {2, 5, 85, 88},
    {6, 53, 81},
    {40, 62, 67, 76},
    {50, 67, 91},
    {2, 58, 69, 77},
    {9, 26, 65},
    {15, 16, 65},
    {34, 41, 45, 94},
    {8, 31, 46},
    {27, 34, 41},
    {11, 32, 53, 56},
    {8, 10, 28, 74},
    {12, 30, 86},
    {13, 43, 98, 100},
    {27, 29, 94},
    {4, 47, 93},
    {43, 73, 83},
    {17, 54, 80},
    {19, 64, 71, 92},
    {3, 44, 60},
    {62, 87, 89},
    {27, 29, 94},
    {18, 25, 95},
    {13, 33, 100},
    {3, 39, 60, 95},
    {66, 70, 75},
    {8, 28, 83},
    {4, 9, 35, 93},
    {17, 18, 95},
    {21, 22, 78, 81},
    {35, 58, 69, 91},
    {12, 52, 98},
    {10, 51, 72},
    {6, 30, 56},
    {10, 17, 80},
    {5, 85, 99},
    {6, 21, 53},
    {3, 39, 44},
    {2, 24, 69},
    {1, 4, 35, 49},
    {3, 11, 39, 100},
    {51, 62, 98},
    {22, 40, 67},
    {72, 86, 97},
    {20, 82, 100},
    {15, 16, 26},
    {1, 21, 45, 75},
    {22, 23, 62},
    {70, 77, 99},
    {2, 24, 58},
    {77, 90, 99},
    {11, 38, 76},
    {10, 52, 63},
    {5, 55, 68},
    {31, 79, 89},
    {1, 45, 66},
    {8, 11, 28},
    {68, 70, 99},
    {7, 14, 81},
    {19, 74, 92},
    {2, 24, 61, 69},
    {7, 14, 78},
    {33, 43, 81, 100},
    {8, 36, 46},
    {15, 16, 48, 97},
    {20, 55, 88},
    {12, 30, 32},
    {40, 49, 89},
    {20, 55, 85},
    {40, 74, 87},
    {70, 77, 91},
    {23, 68, 90},
    {19, 79, 96},
    {4, 35, 47},
    {27, 34, 41},
    {18, 42, 48},
    {29, 74, 79, 92},
    {15, 16, 84},
    {12, 31, 51, 61},
    {55, 70, 77},
    {13, 33, 82}
];
