n = 100;
allowed = [
    {64, 65, 71, 75, 85, 90, 96},
    {17, 53, 58, 67, 69, 76, 78, 79},
    {10, 16, 21, 33, 53, 61, 73},
    {5, 15, 28, 40, 45, 54, 62, 99},
    {4, 28, 40, 45, 54, 67, 91},
    {8, 13, 18, 41, 63, 66, 74},
    {14, 24, 27, 44, 46, 49, 84},
    {13, 18, 43, 51, 64, 96, 97},
    {24, 37, 46, 80, 86, 98, 100},
    {3, 16, 19, 21, 33, 53, 73},
    {12, 26, 31, 38, 50, 58, 76},
    {25, 31, 38, 50, 76, 93, 95},
    {6, 8, 41, 63, 64, 74, 97},
    {7, 27, 39, 44, 49, 83, 92},
    {20, 23, 28, 52, 62, 89, 92},
    {3, 10, 19, 21, 25, 33, 53},
    {2, 58, 69, 71, 78, 79, 90},
    {6, 8, 43, 51, 66, 74, 91},
    {3, 10, 16, 25, 30, 32, 33},
    {15, 23, 39, 52, 55, 89, 92},
    {3, 10, 53, 61, 75, 78, 85},
    {30, 32, 59, 60, 81, 87, 88},
    {15, 20, 28, 52, 55, 89, 92},
    {7, 9, 44, 46, 80, 84, 98},
    {12, 16, 19, 31, 38, 53, 76},
    {11, 12, 31, 38, 50, 61, 76, 95},
    {7, 14, 35, 39, 44, 49, 84},
    {4, 5, 15, 23, 45, 52, 89},
    {4, 15, 36, 42, 62, 68, 83},
    {19, 22, 32, 33, 81, 88, 99},
    {12, 25, 38, 76, 93, 95, 99},
    {19, 22, 30, 33, 57, 88, 99},
    {3, 10, 16, 19, 32, 57, 73},
    {47, 59, 60, 72, 86, 87, 94},
    {7, 20, 27, 39, 55, 57, 84},
    {4, 15, 29, 42, 62, 68, 83},
    {9, 24, 46, 80, 86, 98, 100},
    {12, 25, 31, 50, 76, 95, 99},
    {7, 20, 27, 35, 55, 57, 92},
    {4, 5, 28, 45, 54, 67, 91},
    {6, 8, 13, 51, 64, 74, 97},
    {29, 36, 62, 68, 77, 83, 92},
    {8, 18, 51, 64, 91, 96, 97},
    {7, 14, 24, 27, 46, 49, 84},
    {4, 5, 28, 40, 52, 54, 67},
    {7, 9, 24, 80, 84, 98, 100},
    {34, 59, 60, 72, 86, 87, 88},
    {19, 23, 28, 52, 61, 70, 82, 89},
    {7, 14, 24, 27, 44, 46, 80},
    {11, 12, 26, 31, 38, 76, 95},
    {8, 13, 28, 41, 43, 64, 96, 97},
    {15, 20, 23, 28, 48, 82, 89},
    {3, 10, 16, 21, 25, 69, 78},
    {4, 5, 28, 40, 45, 67, 91},
    {20, 23, 35, 39, 57, 73, 89},
    {22, 47, 59, 60, 81, 87, 88},
    {27, 33, 35, 39, 55, 68, 73, 84},
    {2, 17, 53, 69, 76, 78, 79},
    {22, 47, 56, 60, 81, 87, 88},
    {22, 47, 56, 59, 81, 87, 88},
    {3, 21, 48, 70, 73, 75, 82},
    {4, 15, 23, 29, 36, 42, 83},
    {6, 8, 13, 18, 41, 66, 74},
    {1, 8, 13, 41, 51, 96, 97},
    {1, 11, 41, 64, 71, 79, 85, 90},
    {6, 8, 13, 18, 63, 74, 91},
    {5, 28, 40, 43, 45, 54, 91},
    {14, 29, 36, 42, 62, 77, 83},
    {2, 17, 25, 53, 58, 78, 79},
    {48, 51, 52, 75, 82, 85, 96},
    {1, 64, 65, 75, 78, 85, 90},
    {34, 37, 47, 60, 86, 87, 94},
    {3, 10, 33, 35, 55, 57, 61},
    {6, 8, 13, 18, 41, 63, 66},
    {1, 21, 61, 70, 82, 85, 96},
    {12, 25, 26, 31, 38, 50, 58},
    {14, 29, 36, 42, 62, 68, 83, 93},
    {2, 17, 21, 53, 69, 71, 79},
    {2, 17, 58, 69, 71, 78, 90},
    {7, 9, 24, 37, 44, 46, 98},
    {22, 30, 56, 59, 60, 87, 88},
    {48, 52, 61, 70, 75, 89, 96},
    {14, 29, 36, 42, 62, 68, 92},
    {7, 24, 27, 35, 46, 98, 100},
    {1, 21, 64, 71, 75, 96, 97},
    {9, 34, 37, 47, 72, 87, 94},
    {22, 34, 47, 59, 60, 81, 88},
    {22, 47, 56, 59, 60, 81, 87},
    {15, 20, 23, 28, 48, 52, 55},
    {1, 17, 64, 65, 71, 79, 85},
    {5, 8, 18, 43, 54, 66, 67},
    {14, 15, 20, 23, 39, 62, 83},
    {12, 30, 31, 38, 56, 65, 95, 99},
    {27, 34, 47, 59, 60, 72, 86, 87},
    {12, 25, 31, 38, 50, 93, 99},
    {8, 41, 43, 51, 64, 85, 97},
    {8, 13, 41, 43, 51, 64, 96},
    {9, 24, 37, 46, 80, 84, 100},
    {12, 19, 30, 31, 32, 93, 95},
    {9, 22, 24, 46, 62, 84, 88, 98}
];
