n = 100;
allowed = [
    {64, 65, 71, 75, 85},
    {17, 58, 69, 78, 79},
    {10, 16, 21, 33, 53},
    {5, 28, 40, 45, 54, 92},
    {4, 40, 45, 54, 67},
    {13, 41, 63, 66, 74},
    {14, 24, 27, 44, 49, 96},
    {18, 43, 51, 72, 96, 97},
    {24, 37, 46, 80, 98},
    {3, 16, 19, 33, 36, 53},
    {12, 26, 38, 50, 76},
    {25, 31, 38, 76, 95},
    {6, 41, 63, 64, 74},
    {7, 27, 44, 49, 92},
    {23, 28, 52, 62, 89},
    {3, 10, 19, 33, 53},
    {2, 58, 69, 78, 79},
    {8, 43, 66, 74, 91},
    {3, 10, 16, 25, 33},
    {23, 39, 55, 89, 92},
    {3, 53, 61, 75, 85},
    {30, 60, 81, 87, 88},
    {15, 20, 52, 89, 92},
    {7, 46, 80, 84, 98},
    {12, 16, 19, 38, 53},
    {11, 12, 31, 50, 76},
    {7, 35, 39, 44, 84},
    {4, 15, 45, 52, 89},
    {4, 36, 42, 62, 83},
    {19, 22, 32, 81, 99},
    {12, 25, 38, 93, 95},
    {19, 22, 30, 33, 57},
    {3, 10, 16, 19, 73},
    {47, 72, 86, 87, 94},
    {27, 39, 55, 57, 84},
    {15, 29, 42, 62, 83},
    {9, 46, 80, 86, 98},
    {12, 25, 31, 76, 95},
    {20, 27, 35, 55, 92},
    {4, 5, 45, 54, 67},
    {6, 13, 64, 74, 93, 97},
    {29, 36, 62, 68, 83},
    {8, 18, 51, 96, 97},
    {7, 14, 24, 27, 49},
    {4, 5, 28, 40, 54},
    {9, 24, 80, 84, 98},
    {34, 59, 60, 86, 87},
    {52, 61, 70, 82, 89},
    {7, 14, 24, 27, 44},
    {5, 11, 12, 26, 31, 76},
    {8, 43, 64, 96, 97},
    {15, 23, 28, 48, 89},
    {3, 10, 16, 69, 78},
    {4, 5, 40, 45, 67},
    {20, 23, 35, 39, 73},
    {59, 60, 81, 82, 87, 88},
    {35, 39, 55, 73, 84},
    {2, 17, 69, 78, 79},
    {56, 60, 81, 87, 88},
    {47, 59, 81, 87, 88},
    {21, 48, 73, 75, 82},
    {4, 15, 29, 36, 42, 65},
    {6, 13, 41, 66, 74},
    {13, 41, 51, 96, 97},
    {1, 64, 71, 85, 90, 100},
    {6, 18, 63, 74, 91},
    {5, 43, 45, 54, 91},
    {29, 36, 42, 77, 83},
    {2, 17, 53, 58, 78},
    {48, 51, 62, 75, 82, 96},
    {1, 65, 75, 85, 90},
    {34, 47, 86, 87, 94},
    {3, 10, 33, 55, 61},
    {6, 13, 41, 63, 66},
    {1, 21, 70, 85, 96},
    {12, 26, 31, 38, 50},
    {29, 36, 42, 68, 83},
    {2, 17, 53, 69, 79},
    {2, 17, 58, 69, 70, 78},
    {9, 24, 26, 37, 46, 98},
    {22, 56, 59, 60, 88},
    {48, 52, 61, 70, 75},
    {14, 36, 42, 62, 92},
    {7, 24, 27, 46, 100},
    {1, 71, 75, 96, 97},
    {34, 37, 47, 72, 94},
    {47, 59, 60, 81, 88},
    {22, 59, 60, 81, 87},
    {15, 20, 23, 28, 34, 52},
    {1, 17, 65, 71, 79},
    {8, 18, 43, 66, 67},
    {2, 14, 20, 23, 39, 83},
    {12, 31, 38, 95, 99},
    {34, 47, 60, 72, 77, 86},
    {12, 31, 38, 93, 99},
    {8, 43, 51, 64, 97},
    {8, 43, 51, 64, 96},
    {9, 24, 37, 46, 100},
    {19, 30, 31, 93, 95},
    {9, 11, 24, 46, 84, 98}
];
