n = 20;
allowed = [
    {2, 6, 7, 10, 12, 13, 14, 15, 16, 20},
    {1, 6, 7, 10, 12, 13, 14, 15, 16, 20},
    {2, 5, 6, 8, 9, 11, 13, 14, 15, 16, 18},
    {5, 6, 8, 11, 14, 15, 16, 17, 18, 19},
    {2, 4, 6, 10, 11, 14, 15, 16, 17, 19},
    {2, 3, 5, 7, 10, 11, 13, 14, 15, 16},
    {1, 2, 6, 10, 12, 13, 14, 15, 16, 20},
    {2, 3, 6, 9, 11, 13, 14, 15, 16, 18},
    {2, 3, 6, 7, 8, 11, 13, 14, 15, 18},
    {1, 2, 6, 7, 12, 13, 14, 15, 16, 20},
    {3, 5, 6, 8, 9, 13, 14, 15, 16, 18},
    {1, 2, 6, 7, 10, 13, 14, 15, 16, 20},
    {1, 2, 3, 6, 7, 8, 9, 14, 15, 20},
    {1, 2, 5, 6, 7, 10, 13, 15, 16, 20},
    {1, 2, 6, 7, 10, 12, 13, 14, 16, 20},
    {1, 2, 5, 6, 7, 10, 12, 14, 15, 17},
    {4, 5, 6, 7, 10, 11, 14, 15, 16, 19},
    {2, 3, 5, 6, 8, 9, 11, 13, 14, 15},
    {4, 5, 6, 7, 10, 11, 14, 15, 16, 17},
    {1, 2, 6, 7, 10, 12, 13, 14, 15, 16}
];
