n = 30;
allowed = [
    {14, 22, 24, 30},
    {10, 11, 12, 19, 21},
    {4, 18, 28, 29},
    {3, 9, 28, 29},
    {6, 9, 16, 23, 26},
    {5, 16, 23, 26},
    {17, 24, 25, 29},
    {11, 12, 19, 20},
    {3, 4, 15, 28, 29},
    {1, 5, 14, 22, 30},
    {2, 12, 13, 19},
    {8, 11, 13, 19},
    {11, 12, 19, 20},
    {1, 10, 15, 22},
    {1, 2, 14, 21},
    {6, 7, 17, 26},
    {7, 24, 25, 29},
    {3, 4, 23, 28},
    {2, 11, 12, 13},
    {2, 8, 12, 13, 19},
    {2, 11, 15, 19},
    {1, 21, 24, 27, 30},
    {3, 6, 18, 28},
    {7, 25, 27, 29},
    {7, 17, 24, 29},
    {6, 16, 17, 23, 27},
    {24, 25, 29, 30},
    {3, 4, 18, 29},
    {3, 7, 25, 28},
    {1, 22, 24, 27}
];
