n = 20;
allowed = [
    {3, 5, 6, 7, 9, 11, 12, 13, 14, 19},
    {1, 4, 5, 6, 9, 11, 12, 16, 17, 19},
    {1, 5, 7, 10, 12, 13, 14, 18, 19, 20},
    {2, 5, 6, 8, 9, 11, 15, 16, 17, 19},
    {1, 3, 4, 6, 9, 11, 12, 13, 17, 19},
    {1, 2, 4, 5, 9, 11, 12, 13, 17, 19},
    {1, 3, 5, 9, 10, 12, 13, 14, 18, 20},
    {2, 3, 4, 10, 11, 15, 16, 17, 18, 19},
    {1, 2, 4, 5, 6, 11, 12, 13, 17, 19},
    {3, 4, 7, 8, 11, 15, 16, 18, 19, 20},
    {1, 2, 4, 5, 6, 8, 9, 12, 17, 19},
    {1, 3, 5, 6, 7, 9, 11, 13, 14, 19},
    {1, 3, 5, 6, 7, 9, 11, 12, 14, 20},
    {1, 3, 5, 7, 9, 10, 12, 13, 16, 18, 20},
    {2, 4, 6, 8, 10, 11, 16, 17, 18, 19},
    {2, 4, 6, 8, 10, 11, 15, 17, 18, 19},
    {1, 2, 4, 5, 6, 9, 11, 12, 16, 19},
    {3, 4, 7, 8, 10, 11, 15, 16, 19, 20},
    {2, 4, 5, 6, 8, 9, 11, 12, 16, 17},
    {1, 3, 5, 7, 10, 12, 13, 14, 18, 19}
];
