n = 100;
allowed = [
    {11, 36, 94},
    {5, 73, 93},
    {4, 24, 48},
    {3, 24, 51},
    {9, 57, 73, 93},
    {18, 23, 47},
    {33, 63, 80},
    {12, 58, 81},
    {5, 73, 93},
    {21, 31, 92},
    {1, 15, 94},
    {71, 78, 86},
    {5, 9, 41},
    {43, 62, 82},
    {11, 46, 55},
    {26, 48, 84},
    {33, 69, 85},
    {6, 47, 100},
    {41, 83, 97},
    {38, 54, 89},
    {10, 12, 31, 92},
    {9, 29, 74, 97},
    {75, 87, 96},
    {4, 51, 68},
    {36, 46, 94},
    {16, 31, 52},
    {40, 53, 91},
    {10, 37, 98},
    {22, 74, 95},
    {22, 29, 52, 74},
    {26, 52, 92},
    {43, 76, 82},
    {7, 17, 63},
    {30, 50, 59, 78},
    {17, 53, 85},
    {1, 25, 94},
    {28, 60, 98},
    {20, 54, 77},
    {2, 29, 51, 100},
    {66, 69, 91},
    {13, 64, 70, 83},
    {38, 61, 77},
    {14, 32, 82},
    {49, 65, 79},
    {65, 79, 100},
    {15, 36, 55},
    {23, 75, 87},
    {3, 16, 26},
    {44, 45, 79},
    {59, 63, 78},
    {4, 24, 68},
    {26, 36, 47, 87},
    {17, 27, 85},
    {20, 25, 38, 89},
    {15, 46, 76},
    {2, 12, 67, 71},
    {2, 30, 99},
    {8, 81, 86},
    {34, 50, 78},
    {28, 34, 37, 98},
    {42, 77, 89},
    {26, 46, 55, 76},
    {7, 33, 50},
    {13, 41, 83},
    {44, 45, 79, 88},
    {11, 24, 38, 40},
    {56, 71, 78},
    {4, 24, 51},
    {17, 84, 91},
    {20, 54, 90},
    {12, 56, 67},
    {29, 44, 64, 83},
    {5, 9, 93},
    {22, 29, 30},
    {23, 47, 87},
    {32, 55, 62},
    {38, 42, 61},
    {12, 50, 59},
    {44, 45, 65},
    {7, 63, 86},
    {8, 12, 51, 58},
    {32, 43, 76},
    {41, 64, 97},
    {16, 48, 69},
    {17, 35, 53},
    {50, 58, 80},
    {23, 47, 75},
    {25, 36, 37, 94},
    {20, 54, 61},
    {20, 54, 70, 95},
    {27, 40, 69},
    {10, 21, 31},
    {5, 9, 73},
    {1, 11, 36, 56},
    {29, 30, 72},
    {6, 23, 75, 87},
    {19, 41, 83},
    {28, 37, 60},
    {2, 47, 57, 73},
    {18, 39, 45}
];
