n = 100;
allowed = [
    {19, 65, 80},
    {11, 77, 86},
    {42, 65, 66},
    {45, 68, 84},
    {14, 37, 38},
    {18, 41, 72},
    {12, 23, 91, 95},
    {20, 21, 30},
    {29, 36, 61, 66},
    {7, 12, 46, 67},
    {2, 76, 86},
    {7, 10, 67},
    {14, 22, 26, 28},
    {5, 25, 37},
    {16, 76, 98},
    {39, 58, 87},
    {26, 40, 59, 79},
    {33, 84, 88},
    {3, 65, 66},
    {8, 21, 83},
    {24, 42, 64},
    {13, 26, 28},
    {43, 59, 70},
    {21, 42, 64, 69},
    {85, 95, 97},
    {40, 79, 100},
    {26, 40, 41, 100},
    {13, 22, 46},
    {9, 35, 99},
    {3, 26, 40, 100},
    {38, 74, 99},
    {62, 81, 90},
    {18, 84, 88},
    {35, 48, 73},
    {34, 48, 73},
    {1, 65, 66, 94},
    {14, 25, 91},
    {5, 14, 31},
    {16, 54, 87, 90},
    {26, 79, 100},
    {6, 18, 96},
    {3, 64, 66},
    {23, 48, 70},
    {33, 41, 56},
    {4, 68, 84},
    {28, 49, 93},
    {63, 69, 75},
    {34, 35, 43},
    {28, 46, 93},
    {27, 28, 92},
    {60, 62, 63, 94},
    {57, 76, 78, 82},
    {46, 49, 58, 93},
    {52, 57, 78, 96},
    {51, 60, 77},
    {43, 48, 70},
    {52, 78, 82},
    {15, 16, 79, 87},
    {23, 43, 73, 98},
    {51, 55, 62},
    {5, 24, 50, 83},
    {32, 51, 60},
    {51, 60, 69},
    {21, 24, 42},
    {19, 66, 94},
    {3, 42, 65},
    {10, 12, 72},
    {4, 45, 84},
    {47, 51, 63},
    {23, 43, 55, 56},
    {68, 74, 91},
    {6, 67, 87},
    {34, 35, 43, 90},
    {68, 71, 91},
    {47, 63, 78},
    {2, 15, 98},
    {2, 55, 89},
    {52, 57, 75},
    {17, 26, 40},
    {1, 8, 19},
    {32, 44, 69, 82},
    {52, 57, 92},
    {27, 30, 61},
    {4, 45, 74, 88},
    {25, 95, 97},
    {2, 10, 11, 77},
    {16, 58, 72},
    {18, 45, 84},
    {2, 55, 77, 93},
    {16, 32, 39},
    {25, 37, 71},
    {39, 50, 57, 82},
    {46, 49, 53},
    {19, 36, 65},
    {25, 75, 85, 97},
    {6, 17, 41, 72},
    {25, 85, 95},
    {15, 76, 89},
    {29, 35, 48},
    {26, 30, 40}
];
