n = 20;
allowed = [
    {2, 4, 5, 10, 17, 18, 20},
    {1, 5, 9, 10, 12, 17, 18},
    {5, 7, 8, 11, 13, 14, 19},
    {1, 2, 9, 10, 14, 17, 18, 20},
    {1, 2, 3, 8, 11, 13, 20},
    {7, 8, 11, 12, 14, 15, 19},
    {6, 8, 10, 12, 14, 15, 19},
    {3, 5, 7, 11, 13, 14, 19},
    {2, 10, 12, 15, 16, 17, 18},
    {2, 9, 12, 15, 16, 17, 18, 20},
    {3, 5, 7, 8, 13, 14, 19},
    {6, 7, 9, 10, 14, 15, 16},
    {1, 2, 3, 5, 8, 11, 20},
    {6, 7, 8, 10, 12, 15, 19},
    {7, 9, 10, 12, 16, 17, 18},
    {7, 9, 10, 12, 15, 17, 18},
    {1, 2, 9, 10, 15, 16, 18},
    {2, 4, 9, 10, 15, 16, 17},
    {3, 6, 7, 8, 11, 12, 14},
    {1, 2, 3, 5, 8, 11, 13}
];
