n = 50;
allowed = [
    {4, 5, 6, 21, 22, 27, 29, 32, 34, 38},
    {12, 14, 18, 19, 21, 22, 23, 26, 44, 47},
    {7, 16, 17, 28, 33, 35, 37, 39, 40, 46},
    {8, 9, 10, 13, 20, 31, 34, 36, 38, 43},
    {1, 6, 22, 25, 27, 29, 30, 32, 45, 47},
    {1, 5, 21, 22, 27, 29, 30, 32, 34, 38},
    {3, 11, 16, 17, 28, 33, 35, 37, 39, 40},
    {4, 9, 10, 13, 20, 31, 34, 36, 43, 49},
    {4, 8, 10, 13, 20, 31, 33, 35, 36, 43, 49},
    {4, 8, 9, 13, 20, 31, 35, 36, 39, 49},
    {7, 16, 17, 21, 26, 29, 32, 33, 40, 44},
    {2, 14, 18, 19, 22, 23, 26, 30, 44, 46, 47},
    {4, 8, 9, 10, 20, 31, 34, 36, 43, 49},
    {2, 12, 18, 19, 21, 23, 26, 40, 44, 48},
    {5, 6, 12, 24, 25, 27, 30, 41, 42, 45, 50},
    {3, 7, 17, 28, 33, 35, 37, 39, 40, 46},
    {3, 7, 11, 16, 28, 33, 37, 39, 40, 46},
    {2, 12, 14, 19, 21, 22, 23, 26, 44, 47},
    {2, 12, 14, 18, 22, 23, 26, 44, 47, 48},
    {4, 8, 9, 10, 13, 31, 34, 36, 43, 49},
    {1, 11, 22, 26, 29, 32, 33, 38, 40, 44},
    {1, 5, 6, 21, 26, 27, 29, 30, 32, 47},
    {2, 14, 17, 18, 19, 26, 28, 40, 44, 48},
    {5, 6, 15, 25, 27, 34, 41, 42, 45, 50},
    {5, 6, 15, 22, 24, 27, 30, 45, 47, 50},
    {7, 11, 16, 17, 21, 29, 32, 33, 40, 44},
    {1, 5, 6, 22, 24, 25, 30, 32, 34, 45},
    {3, 7, 16, 17, 33, 37, 39, 40, 44, 46},
    {1, 6, 7, 11, 21, 22, 26, 32, 33, 38},
    {1, 2, 5, 6, 18, 22, 25, 27, 32, 47},
    {4, 8, 9, 10, 13, 20, 35, 36, 43, 49},
    {1, 6, 11, 21, 22, 26, 29, 33, 34, 38},
    {7, 11, 16, 17, 21, 26, 29, 35, 39, 40},
    {1, 4, 6, 20, 29, 32, 36, 38, 41, 42},
    {3, 7, 10, 16, 17, 33, 36, 38, 39, 49},
    {4, 8, 9, 10, 20, 31, 34, 35, 38, 49},
    {3, 7, 16, 17, 28, 33, 35, 39, 40, 46},
    {1, 4, 6, 11, 21, 29, 32, 33, 34, 36},
    {3, 7, 10, 16, 17, 33, 35, 37, 46, 49},
    {7, 11, 16, 17, 26, 28, 33, 37, 44, 46},
    {1, 4, 6, 8, 20, 24, 34, 42, 43, 45},
    {1, 4, 6, 8, 20, 24, 34, 41, 43, 45},
    {4, 8, 9, 10, 13, 20, 31, 34, 36, 41},
    {11, 14, 17, 18, 21, 23, 26, 28, 40, 48},
    {1, 5, 6, 15, 24, 25, 27, 41, 42, 50},
    {3, 7, 9, 16, 17, 28, 33, 35, 37, 39, 40},
    {2, 5, 12, 14, 18, 19, 21, 22, 27, 30},
    {11, 14, 17, 23, 26, 28, 37, 40, 44, 46},
    {3, 7, 9, 10, 16, 20, 31, 35, 36, 39},
    {5, 6, 15, 24, 25, 27, 30, 41, 42, 45}
];
