n = 30;
allowed = [
    {5, 7, 16, 20, 29},
    {12, 17, 18, 26, 28},
    {6, 13, 20, 21, 26},
    {8, 19, 22, 23, 30},
    {7, 11, 12, 14, 20},
    {3, 13, 16, 21, 26},
    {1, 5, 8, 14, 29},
    {4, 19, 22, 23, 30},
    {13, 15, 16, 25, 27},
    {11, 12, 17, 24, 28},
    {5, 10, 14, 24, 28},
    {5, 10, 11, 17, 28},
    {6, 9, 16, 21, 27},
    {5, 6, 10, 11, 24, 28},
    {4, 9, 16, 23, 25, 30},
    {9, 13, 15, 25, 29},
    {2, 10, 12, 18, 28},
    {2, 10, 12, 17, 28},
    {4, 8, 22, 23, 30},
    {1, 5, 12, 26, 29},
    {3, 6, 13, 16, 26},
    {4, 8, 19, 23, 30},
    {1, 8, 15, 19, 30},
    {10, 11, 12, 14, 28},
    {9, 13, 15, 16, 27},
    {3, 6, 13, 20, 21},
    {6, 9, 13, 16, 25},
    {10, 11, 12, 17, 24},
    {1, 5, 7, 16, 20},
    {4, 8, 15, 19, 23}
];
