n = 50;
allowed = [
    {2, 3, 8, 18, 20, 31, 39, 41, 44, 49},
    {1, 3, 16, 20, 31, 37, 39, 41, 44, 49},
    {1, 2, 16, 20, 22, 31, 37, 39, 41, 44, 49},
    {9, 15, 24, 25, 28, 32, 38, 40, 43, 48},
    {1, 2, 3, 16, 18, 21, 27, 31, 37, 41},
    {5, 7, 11, 12, 13, 21, 27, 29, 30, 46},
    {11, 13, 15, 22, 26, 28, 29, 38, 46, 47},
    {1, 18, 24, 26, 27, 28, 33, 38, 39, 46},
    {4, 15, 22, 23, 26, 34, 43, 47, 48, 50},
    {14, 17, 19, 32, 35, 36, 39, 40, 42, 45},
    {6, 7, 12, 13, 21, 22, 27, 29, 30, 46},
    {6, 7, 11, 13, 21, 22, 27, 29, 30, 39, 46},
    {6, 7, 11, 12, 21, 22, 26, 29, 46, 47},
    {10, 17, 19, 25, 32, 35, 36, 40, 42, 45},
    {7, 9, 22, 23, 26, 38, 43, 47, 48, 50},
    {1, 2, 3, 5, 20, 31, 37, 41, 44, 49},
    {10, 14, 19, 32, 34, 35, 36, 39, 40, 42, 45},
    {1, 3, 8, 24, 28, 31, 33, 39, 41, 44},
    {10, 14, 17, 25, 32, 35, 36, 40, 42, 45},
    {1, 2, 3, 16, 31, 37, 39, 41, 44, 49},
    {5, 6, 7, 11, 12, 13, 27, 29, 30, 46},
    {7, 13, 15, 23, 26, 38, 46, 47, 48, 50},
    {9, 15, 22, 26, 34, 38, 43, 47, 48, 50},
    {4, 8, 18, 26, 28, 33, 36, 38, 39, 40},
    {4, 14, 19, 24, 32, 35, 36, 40, 42, 43},
    {7, 15, 22, 24, 28, 33, 38, 43, 46, 47},
    {1, 5, 6, 8, 11, 12, 18, 21, 31, 46},
    {4, 7, 8, 15, 24, 26, 33, 38, 43, 46},
    {6, 7, 11, 12, 13, 21, 22, 30, 46, 47},
    {5, 6, 7, 11, 12, 13, 21, 27, 29, 46},
    {1, 2, 3, 16, 20, 37, 39, 41, 44, 49},
    {4, 10, 14, 17, 19, 25, 35, 36, 40, 42},
    {1, 8, 18, 24, 26, 28, 36, 38, 39, 40},
    {4, 9, 15, 22, 23, 26, 30, 43, 47, 48, 50},
    {10, 14, 17, 19, 25, 32, 36, 40, 42, 45},
    {10, 14, 17, 19, 24, 25, 32, 35, 40, 45},
    {1, 2, 3, 5, 16, 20, 31, 41, 44, 49},
    {7, 15, 22, 24, 26, 28, 33, 43, 46, 47},
    {1, 3, 8, 18, 20, 31, 33, 44, 45, 49},
    {10, 14, 17, 19, 24, 25, 32, 35, 36, 42},
    {1, 2, 3, 5, 16, 20, 31, 37, 44, 49},
    {10, 14, 17, 19, 25, 32, 35, 36, 40, 45},
    {4, 9, 15, 23, 26, 28, 38, 47, 48, 50},
    {1, 2, 3, 18, 20, 31, 39, 41, 45, 49},
    {10, 17, 18, 19, 35, 36, 39, 40, 42, 44},
    {7, 8, 11, 13, 17, 22, 26, 28, 29, 38, 47},
    {7, 15, 22, 23, 26, 38, 43, 46, 48, 50},
    {4, 9, 15, 22, 23, 26, 34, 43, 47, 50},
    {1, 2, 3, 16, 20, 31, 37, 39, 41, 44},
    {9, 15, 22, 23, 26, 34, 38, 43, 47, 48}
];
