n = 30;
allowed = [
    {5, 6, 22, 27, 29},
    {12, 14, 18, 19, 23},
    {7, 10, 16, 17, 28},
    {8, 9, 10, 12, 13, 20},
    {1, 6, 22, 27, 30},
    {1, 5, 22, 27, 29},
    {3, 11, 16, 17, 28},
    {4, 9, 10, 13, 20},
    {4, 8, 10, 13, 20},
    {4, 8, 9, 13, 20},
    {7, 17, 21, 26, 29},
    {1, 2, 14, 18, 19, 23},
    {4, 8, 9, 10, 20},
    {2, 18, 19, 23, 26},
    {5, 24, 25, 27, 30},
    {3, 7, 11, 17, 28},
    {3, 7, 11, 16, 28},
    {2, 12, 14, 19, 23},
    {2, 12, 14, 18, 23},
    {4, 8, 9, 10, 13},
    {1, 11, 22, 26, 29},
    {1, 5, 6, 21, 30},
    {2, 14, 18, 19, 25, 26},
    {5, 6, 9, 15, 25, 27},
    {5, 15, 24, 27, 30},
    {2, 7, 11, 17, 21, 29},
    {1, 5, 6, 22, 30},
    {3, 7, 16, 17, 26},
    {1, 7, 11, 21, 26},
    {5, 6, 22, 25, 27}
];
