n = 20;
allowed = [
    {2, 3, 5, 8, 16, 18, 20},
    {1, 3, 5, 8, 16, 18, 20},
    {1, 2, 5, 8, 16, 18, 20},
    {7, 8, 9, 10, 14, 15, 19},
    {1, 2, 3, 8, 16, 18, 20},
    {5, 7, 8, 11, 12, 13, 18},
    {6, 8, 11, 12, 13, 15, 18},
    {1, 3, 5, 7, 10, 18, 20},
    {4, 7, 8, 13, 14, 15, 18},
    {1, 8, 14, 17, 18, 19, 20},
    {5, 6, 7, 8, 12, 13, 15},
    {5, 6, 7, 8, 11, 13, 15},
    {6, 7, 8, 11, 12, 15, 18},
    {1, 4, 8, 10, 17, 18, 19},
    {4, 7, 8, 9, 11, 13, 18},
    {1, 2, 3, 5, 8, 11, 18, 20},
    {1, 3, 7, 10, 14, 18, 19, 20},
    {1, 2, 3, 8, 10, 17, 20},
    {1, 8, 10, 14, 17, 18, 20},
    {1, 2, 3, 5, 16, 17, 18}
];
