n = 30;
allowed = [
    {9, 14, 17, 22, 23, 25, 29},
    {4, 6, 11, 12, 13, 15, 24},
    {1, 8, 12, 14, 19, 25, 29},
    {6, 7, 11, 13, 15, 24, 26},
    {10, 18, 20, 21, 27, 28, 30},
    {2, 4, 11, 13, 15, 24, 26},
    {4, 6, 12, 15, 24, 26, 29, 30},
    {1, 3, 12, 14, 17, 19, 25},
    {1, 14, 17, 22, 23, 25, 27},
    {12, 16, 18, 21, 23, 27, 28, 30},
    {2, 4, 6, 13, 15, 24, 26},
    {1, 3, 6, 7, 15, 26, 29},
    {2, 4, 6, 7, 11, 12, 15, 24},
    {1, 9, 17, 19, 22, 23, 25},
    {4, 6, 7, 12, 24, 26, 29},
    {9, 10, 18, 21, 22, 27, 30},
    {1, 9, 14, 22, 23, 25, 27},
    {10, 16, 21, 23, 27, 28, 30},
    {1, 3, 8, 11, 12, 14, 17, 25},
    {5, 10, 18, 21, 27, 28, 30},
    {10, 16, 18, 23, 27, 28, 30},
    {1, 9, 14, 17, 23, 25, 27},
    {1, 9, 14, 17, 18, 22, 27},
    {2, 4, 6, 11, 12, 13, 15},
    {1, 9, 14, 17, 19, 22, 23},
    {4, 6, 7, 12, 15, 24, 29},
    {10, 18, 21, 22, 23, 28, 30},
    {5, 10, 18, 21, 23, 27, 30},
    {1, 3, 7, 12, 15, 23, 26},
    {10, 16, 18, 21, 23, 27, 28}
];
