n = 100;
allowed = [
    {9, 51, 61, 73, 77, 78, 80},
    {6, 20, 30, 42, 62, 64, 89},
    {15, 33, 35, 44, 50, 53, 56},
    {23, 24, 32, 34, 47, 55, 60, 75},
    {14, 18, 29, 57, 63, 76, 90},
    {12, 19, 24, 30, 49, 81, 89},
    {4, 10, 20, 42, 46, 62, 64, 91},
    {28, 34, 55, 75, 83, 84, 87},
    {1, 51, 61, 73, 80, 87, 88},
    {2, 7, 42, 46, 62, 64, 91},
    {31, 37, 58, 65, 67, 71, 99},
    {6, 24, 30, 42, 49, 81, 89},
    {17, 22, 31, 45, 67, 70, 100},
    {5, 22, 29, 57, 68, 71, 85},
    {3, 28, 33, 35, 53, 70, 83},
    {13, 22, 39, 54, 68, 85, 96},
    {13, 31, 45, 58, 67, 70, 100},
    {5, 16, 36, 39, 66, 72, 90},
    {6, 25, 30, 41, 49, 81, 95},
    {2, 52, 62, 64, 74, 93, 98},
    {14, 27, 48, 59, 60, 86, 92, 94},
    {13, 14, 29, 57, 68, 71, 85},
    {4, 25, 32, 47, 59, 60, 75},
    {6, 12, 19, 30, 38, 49, 76, 81},
    {19, 23, 32, 41, 48, 59, 60},
    {45, 58, 70, 82, 83, 84, 100},
    {21, 47, 48, 59, 60, 86, 94},
    {3, 8, 15, 44, 53, 55, 83},
    {14, 16, 22, 57, 62, 68, 71, 85},
    {6, 41, 49, 69, 81, 89, 95},
    {17, 45, 58, 65, 67, 82, 97},
    {4, 23, 25, 41, 47, 79, 95},
    {3, 15, 53, 54, 70, 96, 100},
    {4, 8, 28, 40, 43, 55, 75},
    {3, 15, 44, 50, 53, 56, 96},
    {7, 39, 52, 66, 72, 74, 93, 98},
    {11, 51, 65, 77, 78, 97, 99},
    {12, 19, 24, 25, 48, 49, 81},
    {16, 36, 66, 72, 74, 93, 98},
    {4, 8, 34, 43, 75, 87, 88},
    {6, 19, 49, 69, 79, 81, 95},
    {2, 6, 12, 24, 30, 64, 91},
    {4, 8, 34, 40, 75, 87, 88},
    {3, 35, 50, 53, 56, 69, 79},
    {17, 26, 31, 58, 70, 84, 100},
    {2, 7, 10, 42, 62, 64, 91},
    {4, 23, 27, 48, 59, 60, 92},
    {21, 25, 27, 47, 59, 60, 86},
    {6, 19, 30, 41, 69, 81, 95},
    {3, 15, 18, 35, 44, 53, 56, 69},
    {1, 9, 37, 73, 77, 78, 80},
    {20, 39, 62, 72, 74, 93, 98},
    {3, 15, 28, 35, 44, 50, 56},
    {13, 16, 33, 38, 70, 96, 98, 100},
    {8, 15, 28, 34, 53, 79, 83},
    {35, 44, 50, 53, 69, 79, 95},
    {14, 16, 22, 29, 68, 71, 85},
    {31, 45, 65, 67, 82, 97, 99},
    {21, 25, 27, 47, 48, 60, 86},
    {4, 23, 27, 47, 48, 59, 92},
    {1, 9, 73, 77, 80, 87, 88},
    {2, 7, 20, 36, 52, 64, 93},
    {5, 14, 18, 29, 42, 57, 76, 90},
    {2, 20, 30, 42, 52, 62, 89},
    {31, 37, 58, 77, 78, 97, 99},
    {16, 18, 36, 39, 72, 90, 98},
    {11, 13, 17, 31, 45, 58, 65},
    {13, 14, 16, 22, 29, 57, 85},
    {30, 41, 56, 79, 81, 89, 95},
    {13, 15, 17, 26, 33, 45, 100},
    {11, 14, 22, 29, 57, 68, 85},
    {39, 52, 66, 74, 93, 96, 98},
    {1, 9, 51, 61, 77, 78, 80},
    {20, 36, 39, 52, 72, 93, 98},
    {4, 8, 23, 32, 34, 43, 47},
    {5, 14, 18, 29, 57, 63, 90},
    {1, 37, 65, 78, 82, 97, 99},
    {37, 58, 65, 77, 82, 97, 99},
    {32, 41, 44, 56, 69, 81, 84, 95},
    {1, 9, 51, 61, 73, 87, 88},
    {6, 19, 30, 41, 49, 69, 95},
    {26, 45, 58, 77, 78, 84, 97},
    {15, 26, 28, 45, 70, 84, 100},
    {26, 45, 50, 58, 82, 83, 97, 100},
    {14, 16, 22, 29, 57, 68, 71},
    {21, 27, 48, 59, 60, 92, 94},
    {1, 8, 9, 61, 73, 80, 88},
    {1, 9, 40, 43, 61, 80, 87},
    {6, 30, 41, 49, 69, 81, 95},
    {5, 16, 18, 39, 63, 66, 76},
    {2, 7, 10, 42, 46, 62, 64},
    {21, 27, 47, 59, 60, 86, 94},
    {20, 36, 52, 62, 72, 74, 98},
    {21, 27, 47, 59, 60, 86, 92},
    {41, 49, 56, 69, 79, 81, 89},
    {3, 15, 33, 35, 54, 70, 98},
    {58, 65, 77, 78, 82, 84, 99},
    {39, 52, 66, 72, 74, 93, 96},
    {37, 58, 65, 77, 78, 82, 97},
    {13, 17, 26, 33, 45, 70, 83}
];
