n = 30;
allowed = [
    {5, 9, 11, 12, 23},
    {4, 6, 11, 17},
    {7, 13, 14, 20},
    {11, 17, 19, 21},
    {6, 9, 12, 23},
    {5, 9, 23, 29},
    {3, 13, 14, 20},
    {15, 16, 21, 25},
    {5, 6, 12, 23},
    {18, 24, 27, 28},
    {4, 6, 19, 29},
    {1, 5, 9, 23},
    {3, 7, 14, 22},
    {3, 7, 13, 20},
    {8, 16, 21, 25},
    {4, 8, 15, 21},
    {2, 6, 11, 16, 29},
    {10, 25, 27, 28},
    {4, 11, 29, 30},
    {3, 7, 14, 26, 29},
    {4, 8, 15, 16},
    {3, 7, 12, 13},
    {1, 5, 9, 12},
    {10, 18, 26, 28},
    {8, 10, 18, 27},
    {3, 20, 24, 28},
    {10, 18, 25, 28},
    {10, 18, 24, 27},
    {5, 6, 11, 19},
    {2, 4, 11, 19, 29}
];
