n = 100;
allowed = [
    {59, 75, 84, 97, 98},
    {3, 20, 41, 58, 72, 96},
    {2, 20, 31, 58, 72},
    {43, 56, 60, 71, 81},
    {51, 69, 74, 88, 92},
    {11, 12, 30, 57, 94},
    {46, 52, 66, 67, 70},
    {18, 65, 80, 90, 100},
    {34, 43, 48, 71, 99},
    {17, 19, 45, 79, 87},
    {6, 12, 29, 57, 94},
    {6, 11, 29, 57, 94},
    {7, 11, 12, 29, 89, 94},
    {32, 40, 42, 55, 61},
    {22, 26, 47, 48, 71},
    {2, 37, 41, 63, 89},
    {10, 19, 45, 68, 79},
    {1, 8, 39, 65, 100},
    {10, 17, 35, 61, 79},
    {2, 3, 44, 49, 58},
    {6, 12, 57, 64, 68, 92},
    {7, 13, 26, 47, 52, 67},
    {15, 34, 48, 50, 99},
    {33, 76, 77, 82, 85},
    {14, 32, 40, 56, 81},
    {7, 38, 47, 52, 66},
    {51, 64, 92, 95, 96},
    {24, 33, 38, 50, 62, 77},
    {11, 12, 13, 57, 94},
    {6, 11, 12, 29, 57},
    {3, 41, 58, 72, 86},
    {14, 25, 40, 55, 61},
    {24, 28, 76, 85, 100},
    {9, 23, 48, 50, 66, 99},
    {10, 17, 19, 49, 61, 79},
    {40, 61, 73, 82, 91},
    {2, 16, 41, 63, 89},
    {26, 28, 52, 54, 62},
    {18, 47, 53, 65, 83, 97},
    {25, 32, 36, 61, 91},
    {2, 3, 31, 72, 86},
    {14, 32, 35, 55, 61, 69},
    {4, 9, 56, 60, 71},
    {20, 49, 53, 58, 72, 84},
    {10, 17, 68, 79, 87},
    {7, 52, 54, 66, 70},
    {15, 22, 26, 52, 67},
    {9, 23, 34, 71, 99},
    {2, 3, 20, 44, 58},
    {15, 23, 34, 48, 99},
    {5, 27, 64, 69, 92},
    {7, 22, 26, 66, 67},
    {1, 39, 59, 84, 97},
    {38, 46, 66, 70, 90},
    {14, 32, 35, 42, 61},
    {4, 25, 43, 60, 81, 90},
    {6, 8, 11, 12, 29, 94},
    {2, 3, 20, 49, 72},
    {1, 53, 75, 84, 97},
    {4, 43, 56, 71, 81},
    {19, 35, 36, 40, 91},
    {26, 28, 33, 38, 77},
    {16, 37, 41, 88, 89},
    {21, 27, 51, 69, 92},
    {18, 39, 76, 83, 100},
    {7, 46, 52, 54, 70},
    {7, 22, 47, 52, 66},
    {10, 17, 45, 79, 87},
    {5, 30, 51, 64, 88, 92},
    {7, 46, 52, 54, 66},
    {9, 15, 43, 48, 99},
    {2, 3, 31, 41, 86},
    {45, 65, 76, 83, 87},
    {75, 78, 88, 93, 95},
    {1, 59, 84, 97, 98},
    {24, 73, 82, 85, 100},
    {24, 28, 33, 38, 62},
    {74, 75, 88, 93, 95},
    {10, 17, 19, 45, 68},
    {8, 76, 90, 93, 95, 98},
    {4, 25, 43, 56, 60},
    {24, 33, 36, 42, 76, 85},
    {39, 53, 65, 73, 87},
    {1, 53, 59, 75, 97},
    {24, 33, 76, 82, 100},
    {3, 31, 41, 56, 72, 84},
    {10, 45, 73, 79, 83},
    {5, 69, 74, 78, 95},
    {2, 16, 37, 41, 63},
    {8, 18, 54, 80, 100},
    {19, 35, 36, 40, 61},
    {5, 27, 51, 64, 69},
    {1, 74, 75, 78, 98},
    {11, 12, 13, 29, 57},
    {27, 74, 78, 80, 88},
    {27, 46, 70, 80, 90},
    {1, 59, 75, 84, 98},
    {1, 59, 75, 93, 97},
    {9, 23, 34, 48, 71},
    {18, 33, 65, 76, 85}
];
