n = 20;
allowed = [
    {5, 7, 15, 16, 20},
    {3, 10, 12, 17, 18},
    {2, 6, 13, 16, 20},
    {1, 7, 8, 15, 19},
    {7, 11, 12, 14, 20},
    {3, 9, 13, 16, 20},
    {1, 5, 8, 14, 20},
    {1, 4, 7, 15, 19},
    {1, 6, 13, 15, 16},
    {11, 12, 14, 17, 18},
    {5, 10, 12, 14, 17},
    {5, 10, 11, 17, 18},
    {3, 6, 9, 16, 20},
    {5, 7, 10, 11, 12, 18},
    {1, 8, 9, 13, 16},
    {1, 6, 9, 13, 15},
    {2, 10, 11, 12, 18},
    {2, 4, 10, 11, 12, 17},
    {1, 4, 7, 8, 15},
    {1, 5, 7, 12, 16}
];
