n = 100;
allowed = [
    {4, 8, 12, 27, 28, 52, 64},
    {4, 27, 35, 65, 66, 97, 99},
    {15, 16, 22, 24, 51, 54, 89},
    {1, 2, 27, 35, 52, 64, 99},
    {21, 34, 42, 52, 58, 62, 63, 67},
    {31, 55, 59, 60, 61, 65, 66},
    {9, 38, 47, 48, 50, 58, 85, 90},
    {10, 12, 28, 75, 76, 79, 81},
    {7, 47, 48, 50, 73, 85, 90},
    {8, 19, 36, 56, 75, 76, 79, 81},
    {3, 16, 36, 51, 72, 91, 94},
    {8, 10, 46, 52, 75, 76, 79},
    {22, 24, 37, 38, 54, 74, 95},
    {17, 43, 45, 48, 82, 83, 85},
    {3, 16, 22, 24, 54, 77, 86},
    {3, 15, 24, 51, 54, 77, 94},
    {14, 20, 41, 50, 82, 83, 85},
    {13, 22, 37, 70, 74, 86, 87},
    {10, 32, 56, 67, 78, 79, 80},
    {17, 29, 39, 41, 82, 83, 96},
    {34, 42, 63, 67, 71, 80, 92},
    {3, 13, 15, 24, 37, 43, 54, 74},
    {25, 30, 34, 46, 71, 72, 100},
    {3, 13, 15, 22, 37, 54, 74},
    {23, 30, 34, 46, 71, 97, 98, 100},
    {59, 60, 68, 69, 77, 86, 94},
    {1, 2, 4, 12, 28, 52, 64},
    {1, 8, 12, 27, 49, 52, 64, 76},
    {20, 39, 41, 49, 62, 88, 96},
    {23, 25, 46, 71, 72, 93, 100},
    {6, 53, 55, 59, 60, 61, 65, 66},
    {19, 33, 40, 58, 67, 78, 84},
    {5, 19, 32, 40, 58, 67, 78, 84},
    {21, 23, 42, 63, 71, 80, 92},
    {2, 4, 56, 65, 66, 93, 97, 99},
    {11, 31, 55, 61, 65, 72, 93, 97},
    {13, 18, 22, 24, 70, 74, 87},
    {7, 13, 44, 47, 89, 90, 95},
    {20, 29, 41, 62, 82, 88, 96},
    {19, 32, 33, 58, 67, 78, 84},
    {17, 20, 29, 39, 82, 88, 96},
    {21, 34, 63, 67, 71, 80, 92},
    {14, 17, 20, 41, 45, 82, 83},
    {3, 38, 51, 54, 89, 90, 95},
    {14, 17, 20, 43, 82, 83, 85},
    {12, 23, 25, 30, 71, 72, 100},
    {7, 9, 38, 48, 50, 85, 90},
    {7, 9, 17, 47, 50, 85, 90},
    {29, 39, 57, 62, 73, 88, 96},
    {7, 9, 17, 47, 48, 83, 85},
    {3, 11, 16, 44, 54, 89, 91},
    {1, 4, 8, 12, 27, 28, 64},
    {5, 29, 39, 41, 62, 87, 88, 96},
    {3, 13, 15, 16, 22, 24, 89},
    {6, 59, 60, 61, 65, 68, 94},
    {10, 19, 75, 76, 79, 80, 81},
    {9, 49, 73, 88, 90, 96, 98},
    {5, 32, 40, 63, 67, 84, 92},
    {26, 55, 60, 61, 68, 77, 94},
    {6, 31, 55, 59, 61, 65, 68},
    {36, 55, 59, 60, 68, 77, 94},
    {5, 29, 39, 49, 53, 88, 96},
    {5, 21, 34, 42, 58, 67, 92},
    {1, 4, 8, 12, 27, 28, 52},
    {6, 31, 36, 55, 61, 66, 97},
    {6, 31, 35, 55, 60, 65, 97},
    {21, 32, 40, 42, 58, 80, 92},
    {26, 55, 59, 60, 61, 77, 94},
    {26, 59, 60, 68, 70, 77, 86},
    {18, 22, 24, 37, 74, 86, 87},
    {21, 23, 25, 30, 34, 42, 46},
    {23, 25, 30, 46, 71, 93, 100},
    {9, 49, 57, 82, 88, 90, 96, 98},
    {13, 18, 22, 24, 37, 70, 87},
    {8, 10, 56, 76, 79, 80, 81},
    {8, 10, 12, 56, 75, 79, 80},
    {15, 16, 59, 61, 68, 86, 94},
    {19, 32, 33, 40, 56, 67, 84},
    {10, 19, 56, 75, 76, 80, 81},
    {19, 21, 34, 42, 67, 79, 92},
    {8, 10, 19, 56, 75, 76, 79},
    {17, 20, 29, 39, 41, 83, 96},
    {14, 17, 20, 41, 43, 45, 82},
    {19, 32, 33, 40, 58, 67, 78},
    {7, 9, 17, 47, 48, 50, 83},
    {15, 18, 22, 24, 37, 70, 77},
    {13, 18, 22, 24, 37, 70, 73, 74},
    {29, 39, 41, 49, 62, 73, 96},
    {3, 24, 38, 44, 51, 54, 90},
    {9, 38, 44, 47, 57, 73, 89},
    {3, 11, 16, 25, 44, 51, 89},
    {21, 34, 42, 63, 67, 71, 80, 81},
    {11, 30, 36, 46, 72, 97, 100},
    {3, 15, 16, 59, 61, 68, 77},
    {13, 22, 24, 38, 44, 74, 89},
    {29, 39, 41, 49, 53, 62, 88},
    {2, 4, 35, 36, 65, 66, 93},
    {21, 23, 25, 49, 57, 71, 73},
    {1, 2, 4, 27, 35, 64, 97},
    {23, 25, 30, 46, 71, 72, 93}
];
