n = 50;
allowed = [
    {3, 23, 39, 41},
    {7, 10, 37, 45},
    {1, 23, 39, 41},
    {11, 21, 33, 44},
    {9, 17, 33, 36},
    {8, 12, 29, 48},
    {10, 37, 45, 50},
    {6, 13, 29, 48},
    {5, 17, 33, 36},
    {2, 7, 30, 37},
    {4, 28, 31, 44},
    {6, 9, 22, 29, 48},
    {8, 27, 32, 34},
    {16, 26, 35, 50},
    {18, 21, 25, 49},
    {14, 26, 43, 50},
    {5, 9, 33, 36},
    {15, 21, 25, 49},
    {8, 24, 29, 46},
    {18, 24, 25, 38, 42},
    {4, 9, 44, 49},
    {6, 12, 47, 48},
    {1, 3, 39, 41},
    {8, 19, 29, 46},
    {15, 18, 47, 49},
    {14, 16, 35, 43},
    {13, 32, 34, 50},
    {11, 30, 31, 39},
    {6, 8, 12, 48},
    {7, 10, 31, 37},
    {10, 28, 30, 37},
    {8, 13, 27, 34},
    {4, 9, 17, 34, 36},
    {13, 27, 32, 40, 50},
    {14, 26, 40, 43},
    {5, 9, 17, 33},
    {7, 10, 30, 45},
    {20, 25, 42, 47},
    {1, 3, 23, 41},
    {14, 26, 35, 42, 43},
    {1, 3, 23, 27, 39},
    {20, 25, 38, 47},
    {14, 16, 26, 40},
    {4, 11, 21, 49},
    {2, 7, 10, 21, 37},
    {2, 8, 19, 24, 29},
    {12, 22, 25, 40},
    {6, 8, 29, 35},
    {15, 21, 25, 44},
    {14, 16, 26, 45}
];
