n = 50;
allowed = [
    {15, 21, 30, 32},
    {1, 15, 21, 30},
    {4, 30, 32, 46},
    {3, 14, 30, 32, 42},
    {11, 14, 28, 44, 48},
    {17, 20, 35, 45},
    {12, 26, 31, 41},
    {16, 34, 39, 49},
    {4, 14, 22, 46},
    {19, 24, 33, 34},
    {5, 22, 29, 37},
    {7, 31, 40, 41},
    {15, 20, 21, 29},
    {3, 4, 9, 22},
    {1, 2, 21, 32},
    {34, 39, 43, 49},
    {6, 35, 42, 45},
    {8, 10, 28, 33, 39},
    {10, 24, 25, 26},
    {6, 17, 35, 44},
    {1, 15, 29, 32},
    {4, 11, 14, 37},
    {27, 38, 40, 41, 50},
    {4, 10, 19, 25, 26},
    {10, 19, 24, 26},
    {19, 24, 25, 31},
    {2, 19, 26, 31},
    {5, 36, 44, 48},
    {13, 15, 21, 32},
    {1, 2, 13, 21, 32},
    {7, 12, 27, 41},
    {1, 15, 21, 30},
    {8, 10, 18, 34},
    {16, 39, 43, 49},
    {6, 17, 20, 42},
    {12, 28, 35, 44, 48},
    {4, 11, 14, 22},
    {7, 23, 40, 41},
    {8, 16, 34, 49},
    {7, 23, 38, 41},
    {7, 12, 31, 40},
    {5, 17, 20, 35, 36},
    {3, 16, 34, 39, 49},
    {20, 28, 36, 48},
    {6, 17, 47, 50},
    {3, 25, 30, 34, 43},
    {6, 17, 39, 45, 50},
    {5, 28, 36, 44},
    {8, 16, 34, 39},
    {6, 41, 45, 47}
];
