n = 50;
allowed = [
    {9, 26, 31, 37},
    {6, 20, 30, 42, 46},
    {15, 20, 35, 44, 50},
    {23, 32, 34, 47},
    {14, 16, 18, 29},
    {12, 24, 30, 49},
    {10, 20, 42, 46},
    {4, 26, 28, 34, 48},
    {1, 37, 40, 43},
    {2, 7, 42, 45, 46},
    {13, 17, 22, 31, 37},
    {4, 6, 24, 30, 42},
    {17, 22, 31, 45},
    {5, 16, 22, 29},
    {3, 28, 33, 35},
    {13, 22, 29, 39},
    {13, 26, 31, 45},
    {5, 16, 36, 39},
    {6, 25, 41, 49},
    {2, 7, 36, 42},
    {12, 25, 27, 47, 48},
    {13, 14, 16, 29},
    {4, 25, 32, 47},
    {6, 12, 30, 49},
    {19, 23, 32, 40, 48},
    {15, 17, 31, 45},
    {21, 25, 47, 48},
    {3, 8, 15, 44},
    {5, 14, 16, 22},
    {6, 24, 41, 49},
    {1, 13, 17, 26, 45},
    {4, 23, 25, 41},
    {3, 15, 35, 45},
    {4, 8, 28, 43},
    {3, 15, 44, 50},
    {7, 18, 20, 39},
    {1, 11, 31, 45},
    {19, 21, 24, 25, 48},
    {9, 16, 18, 20, 36},
    {4, 8, 34, 38, 43},
    {6, 19, 30, 49},
    {2, 6, 12, 30},
    {4, 8, 34, 40},
    {3, 15, 35, 50},
    {13, 17, 26, 31},
    {2, 7, 10, 42},
    {4, 23, 27, 48},
    {21, 25, 27, 47},
    {6, 19, 30, 33, 41},
    {3, 15, 35, 44}
];
