n = 50;
allowed = [
    {8, 12, 19, 20},
    {11, 15, 16},
    {19, 24, 42},
    {18, 33, 45},
    {14, 37, 38},
    {18, 33, 38, 41},
    {10, 12, 25},
    {20, 21, 30, 50},
    {29, 36, 42},
    {7, 12, 39},
    {2, 15, 16, 48},
    {7, 10, 39, 47},
    {22, 26, 28},
    {5, 25, 37},
    {2, 16, 39},
    {10, 15, 39},
    {26, 30, 40},
    {6, 33, 45},
    {3, 4, 36, 42},
    {8, 21, 30},
    {3, 13, 24, 42},
    {3, 13, 26, 28},
    {31, 34, 43, 48},
    {3, 21, 42},
    {7, 14, 37},
    {17, 30, 40},
    {1, 26, 30, 40},
    {13, 22, 46},
    {9, 31, 35},
    {9, 17, 26, 40},
    {5, 29, 38},
    {7, 16, 39},
    {18, 44, 45},
    {35, 43, 48},
    {28, 34, 43, 48},
    {3, 19, 42},
    {5, 14, 25},
    {5, 14, 31},
    {10, 16, 32},
    {17, 26, 30},
    {6, 18, 33},
    {3, 21, 24},
    {23, 34, 48},
    {18, 33, 41},
    {4, 18, 33},
    {13, 28, 49},
    {7, 22, 25, 32},
    {34, 35, 43},
    {13, 20, 28, 46},
    {13, 27, 28}
];
