n = 50;
allowed = [
    {8, 9, 11, 26, 31, 37, 45},
    {6, 7, 12, 20, 24, 30, 42},
    {15, 26, 28, 33, 35, 44, 46, 50},
    {8, 23, 25, 32, 34, 43, 47},
    {14, 16, 18, 22, 29, 36, 39},
    {2, 12, 19, 24, 30, 41, 49},
    {2, 10, 20, 36, 39, 42, 46},
    {4, 15, 26, 28, 34, 43, 45},
    {1, 8, 26, 34, 37, 40, 43},
    {2, 4, 7, 12, 20, 24, 42, 46},
    {13, 17, 22, 26, 31, 37, 45},
    {2, 6, 19, 24, 30, 42, 49},
    {16, 17, 22, 26, 31, 33, 45},
    {5, 11, 13, 16, 17, 22, 29},
    {3, 26, 28, 33, 35, 44, 50},
    {13, 14, 17, 18, 22, 29, 39},
    {11, 13, 22, 26, 31, 33, 45},
    {5, 14, 16, 22, 29, 36, 39},
    {6, 24, 25, 30, 38, 41, 49},
    {2, 7, 35, 36, 39, 42, 50},
    {19, 23, 25, 27, 38, 47, 48},
    {11, 13, 14, 16, 17, 29, 31},
    {4, 19, 25, 32, 41, 47, 48},
    {6, 12, 19, 30, 38, 41, 49},
    {19, 23, 32, 41, 47, 48, 49},
    {8, 13, 15, 17, 31, 33, 45},
    {4, 21, 23, 25, 32, 47, 48},
    {3, 8, 15, 34, 35, 44, 50},
    {5, 11, 13, 14, 16, 17, 22, 38},
    {2, 6, 12, 19, 24, 41, 49},
    {11, 13, 17, 22, 26, 37, 45},
    {4, 19, 23, 25, 41, 47, 49},
    {3, 13, 15, 17, 26, 35, 45},
    {4, 8, 23, 28, 32, 40, 43},
    {3, 15, 20, 28, 33, 44, 50},
    {2, 7, 16, 18, 20, 35, 39},
    {1, 9, 11, 17, 26, 31, 45},
    {6, 12, 15, 19, 24, 25, 48, 49},
    {3, 16, 18, 20, 33, 35, 36},
    {4, 8, 9, 11, 23, 34, 43, 47},
    {6, 19, 23, 25, 30, 32, 49},
    {2, 6, 10, 12, 20, 24, 30},
    {4, 8, 9, 23, 34, 40, 47},
    {3, 15, 28, 33, 35, 41, 50},
    {13, 15, 17, 26, 28, 31, 33},
    {2, 7, 10, 12, 20, 24, 42},
    {4, 21, 23, 25, 27, 32, 48},
    {19, 21, 23, 25, 27, 38, 47},
    {6, 19, 24, 25, 30, 32, 41},
    {3, 15, 28, 30, 33, 35, 44}
];
