n = 30;
allowed = [
    {2, 5, 9, 10, 11, 24, 26},
    {4, 5, 9, 14, 19, 26, 27},
    {8, 10, 11, 13, 20, 23, 24},
    {2, 5, 14, 25, 26, 27, 28},
    {1, 2, 4, 9, 10, 26, 27},
    {11, 12, 17, 18, 20, 23, 29},
    {4, 14, 16, 25, 27, 28, 30},
    {1, 3, 10, 11, 16, 24, 30},
    {1, 2, 5, 19, 21, 22, 26},
    {1, 2, 5, 8, 11, 24, 26},
    {1, 3, 8, 10, 20, 23, 24},
    {6, 14, 17, 18, 20, 21, 23, 29},
    {3, 8, 11, 20, 23, 24, 30},
    {2, 4, 19, 22, 25, 27, 28},
    {2, 5, 9, 18, 19, 21, 22},
    {4, 7, 8, 10, 25, 28, 30},
    {6, 11, 12, 18, 20, 23, 29},
    {1, 5, 9, 12, 23, 26, 29},
    {2, 4, 5, 9, 14, 22, 27},
    {3, 6, 8, 11, 17, 23, 24},
    {2, 5, 7, 9, 15, 18, 19, 22},
    {2, 4, 5, 9, 14, 19, 27},
    {3, 6, 11, 17, 18, 20, 24},
    {1, 5, 8, 10, 11, 26, 30},
    {2, 4, 7, 14, 16, 27, 28, 29},
    {1, 2, 4, 5, 9, 10, 24},
    {2, 4, 5, 14, 15, 19, 22, 28},
    {2, 4, 7, 14, 16, 25, 27},
    {6, 11, 12, 17, 18, 20, 23},
    {1, 8, 10, 11, 16, 24, 25}
];
