n = 50;
allowed = [
    {2, 17, 24, 35, 37, 45, 50},
    {1, 10, 17, 23, 24, 37, 50},
    {8, 11, 28, 31, 39, 44, 46},
    {1, 17, 24, 35, 37, 47, 48},
    {13, 20, 23, 33, 36, 43, 45},
    {7, 12, 14, 21, 30, 32, 49},
    {6, 12, 14, 21, 30, 32, 49},
    {3, 11, 28, 31, 39, 44, 46},
    {10, 15, 16, 18, 25, 26, 42},
    {2, 9, 17, 18, 25, 37, 42, 50},
    {3, 8, 28, 31, 39, 44, 46},
    {7, 14, 21, 30, 32, 40, 49},
    {5, 20, 33, 36, 39, 43, 44},
    {6, 7, 12, 21, 30, 32, 49},
    {9, 16, 25, 26, 27, 29, 34},
    {9, 15, 25, 26, 27, 29, 34},
    {2, 10, 18, 24, 25, 37, 48},
    {9, 10, 17, 25, 37, 42, 48},
    {3, 8, 11, 28, 31, 38, 39},
    {1, 5, 13, 33, 36, 43, 45},
    {6, 7, 12, 14, 30, 32, 49},
    {3, 8, 23, 28, 31, 40, 46},
    {2, 10, 22, 24, 36, 40, 46, 50},
    {1, 2, 10, 17, 37, 45, 50},
    {9, 10, 15, 16, 18, 26, 42},
    {9, 15, 16, 25, 27, 29, 34},
    {9, 15, 16, 26, 29, 34, 41},
    {3, 8, 11, 20, 22, 31, 39, 46},
    {9, 15, 16, 26, 27, 34, 41},
    {6, 7, 12, 14, 21, 32, 41, 49},
    {3, 8, 11, 22, 28, 40, 46},
    {6, 7, 12, 14, 21, 30, 49},
    {5, 13, 20, 36, 39, 43, 44},
    {9, 15, 16, 26, 27, 29, 41, 44},
    {1, 4, 17, 19, 24, 37, 47, 48},
    {5, 8, 13, 33, 43, 44, 46},
    {2, 10, 17, 18, 24, 35, 48},
    {3, 8, 11, 19, 28, 31, 33, 39},
    {3, 8, 11, 28, 31, 44, 46},
    {7, 8, 14, 22, 28, 31, 49},
    {9, 15, 16, 26, 27, 29, 34},
    {9, 16, 17, 18, 25, 26, 48},
    {5, 13, 20, 23, 33, 36, 39, 44},
    {3, 8, 11, 28, 31, 39, 46},
    {1, 2, 5, 20, 23, 24, 50},
    {3, 8, 11, 28, 31, 39, 44},
    {1, 4, 17, 18, 35, 37, 48},
    {17, 18, 25, 35, 37, 42, 47},
    {6, 7, 14, 21, 30, 32, 40},
    {1, 2, 10, 22, 23, 24, 45}
];
