n = 30;
allowed = [
    {5, 7, 8, 9, 15, 16, 20, 23, 29, 30},
    {3, 10, 12, 17, 18, 20, 21, 24, 26, 28},
    {2, 6, 13, 16, 17, 20, 21, 26, 27, 29},
    {1, 5, 7, 8, 15, 19, 22, 23, 29, 30},
    {1, 7, 10, 11, 12, 14, 20, 24, 28, 29},
    {3, 9, 13, 16, 20, 21, 25, 26, 27, 29},
    {1, 5, 8, 11, 14, 20, 22, 23, 29, 30},
    {1, 4, 7, 15, 16, 19, 22, 23, 29, 30},
    {1, 6, 13, 15, 16, 21, 23, 25, 27, 29},
    {2, 5, 11, 12, 14, 17, 18, 20, 24, 28},
    {5, 7, 10, 12, 14, 17, 18, 20, 24, 28},
    {2, 5, 10, 11, 14, 17, 18, 20, 24, 28},
    {3, 6, 9, 16, 20, 21, 25, 26, 27, 29},
    {1, 5, 7, 10, 11, 12, 17, 19, 20, 24, 28},
    {1, 8, 9, 13, 16, 23, 25, 27, 29, 30},
    {1, 6, 9, 13, 15, 20, 21, 25, 27, 29},
    {2, 5, 10, 11, 12, 18, 20, 24, 26, 28},
    {2, 3, 10, 11, 12, 14, 17, 20, 24, 26, 28},
    {1, 4, 7, 8, 15, 16, 22, 23, 29, 30},
    {1, 5, 7, 11, 12, 13, 16, 17, 26, 29},
    {1, 3, 6, 9, 10, 13, 16, 20, 26, 27, 29},
    {1, 4, 5, 7, 8, 15, 19, 23, 29, 30},
    {1, 4, 7, 8, 15, 16, 19, 21, 22, 29, 30},
    {2, 5, 10, 11, 12, 14, 17, 18, 20, 28},
    {1, 6, 9, 13, 15, 16, 23, 27, 29, 30},
    {2, 3, 6, 12, 13, 17, 18, 20, 21, 29},
    {3, 6, 9, 13, 15, 16, 21, 25, 26, 29},
    {2, 5, 10, 11, 12, 14, 17, 18, 20, 24},
    {1, 5, 7, 9, 12, 13, 15, 16, 20, 23},
    {1, 4, 7, 8, 15, 16, 19, 22, 23, 29}
];
