n = 50;
allowed = [
    {9, 11, 26, 31, 37},
    {6, 12, 20, 30, 38, 42},
    {15, 33, 35, 44, 50},
    {23, 32, 34, 43, 47},
    {14, 16, 18, 22, 29},
    {12, 19, 24, 30, 49},
    {2, 4, 10, 20, 42, 46},
    {4, 15, 26, 28, 34},
    {1, 8, 37, 40, 43},
    {2, 7, 20, 42, 46},
    {13, 17, 22, 31, 37},
    {6, 24, 30, 42, 49},
    {17, 22, 31, 33, 45},
    {5, 13, 16, 22, 29},
    {3, 28, 33, 35, 50},
    {13, 14, 22, 29, 39},
    {13, 26, 31, 33, 45},
    {5, 14, 16, 36, 39},
    {6, 25, 30, 41, 49},
    {2, 7, 35, 36, 42},
    {25, 27, 38, 47, 48},
    {13, 14, 16, 17, 29},
    {4, 25, 32, 47, 48},
    {6, 12, 19, 30, 49},
    {19, 23, 32, 41, 48},
    {15, 17, 31, 33, 45},
    {21, 23, 25, 47, 48},
    {3, 8, 15, 44, 50},
    {5, 8, 13, 14, 16, 22},
    {6, 12, 24, 41, 49},
    {11, 13, 17, 26, 45},
    {4, 10, 23, 25, 41, 47},
    {3, 15, 17, 35, 45},
    {4, 8, 28, 40, 43},
    {3, 15, 33, 44, 50},
    {7, 16, 18, 20, 39},
    {1, 11, 26, 31, 45},
    {19, 24, 25, 32, 48, 49},
    {16, 18, 20, 35, 36},
    {4, 8, 9, 34, 43},
    {6, 19, 25, 30, 49},
    {2, 6, 12, 24, 30},
    {4, 8, 9, 34, 40, 42},
    {1, 3, 15, 28, 35, 50},
    {13, 17, 19, 26, 31, 33},
    {2, 7, 10, 20, 42},
    {4, 23, 25, 27, 28, 48},
    {21, 23, 25, 27, 47},
    {6, 19, 25, 30, 41, 50},
    {3, 15, 28, 35, 44}
];
