n = 20;
allowed = [
    {2, 3, 6, 7, 15, 16, 18},
    {1, 5, 6, 7, 15, 16, 18},
    {1, 2, 6, 7, 11, 15, 18},
    {5, 9, 12, 14, 17, 19, 20},
    {2, 6, 10, 13, 15, 16, 18},
    {1, 2, 5, 10, 15, 16, 18},
    {1, 2, 3, 6, 15, 16, 17, 18},
    {3, 7, 9, 11, 12, 14, 18, 20},
    {4, 11, 12, 14, 17, 19, 20},
    {5, 6, 8, 13, 15, 16, 18, 19},
    {2, 3, 6, 8, 12, 14, 18},
    {4, 9, 11, 14, 17, 19, 20},
    {5, 6, 10, 15, 16, 18, 19},
    {4, 9, 11, 12, 18, 19, 20},
    {1, 2, 5, 6, 10, 16, 18},
    {1, 2, 5, 6, 7, 15, 18},
    {4, 5, 9, 12, 14, 19, 20},
    {1, 2, 5, 6, 10, 15, 16},
    {4, 5, 9, 10, 12, 14, 17, 20},
    {4, 9, 11, 12, 14, 17, 19}
];
