n = 50;
allowed = [
    {2, 10, 24, 45},
    {1, 24, 50},
    {11, 39, 44},
    {35, 37, 47},
    {20, 36, 43},
    {14, 21, 30, 47},
    {14, 30, 32},
    {3, 28, 46},
    {15, 25, 26},
    {9, 17, 25},
    {3, 34, 39, 44},
    {7, 30, 32, 42},
    {33, 36, 43},
    {7, 30, 49},
    {9, 16, 26},
    {9, 15, 26, 32},
    {10, 12, 18, 37},
    {25, 42, 48},
    {11, 31, 38},
    {5, 33, 45},
    {6, 14, 49},
    {28, 31, 40},
    {22, 40, 50},
    {1, 2, 50},
    {9, 22, 26, 42},
    {9, 15, 16},
    {29, 34, 41},
    {8, 31, 46},
    {27, 31, 34, 41},
    {7, 14, 32},
    {8, 20, 28, 46},
    {7, 12, 30},
    {13, 19, 36, 43},
    {27, 29, 41},
    {4, 37, 47},
    {13, 33, 43},
    {2, 17, 48},
    {11, 19, 23, 31},
    {3, 11, 44},
    {22, 28, 31},
    {27, 29, 34},
    {9, 18, 25},
    {13, 33, 36},
    {3, 11, 39},
    {1, 5, 20},
    {3, 8, 28},
    {4, 35, 37},
    {17, 18, 37},
    {7, 14, 21},
    {2, 23, 24}
];
