n = 20;
allowed = [
    {2, 11, 16, 17, 19},
    {8, 11, 14, 15, 18},
    {1, 11, 13, 17, 19},
    {5, 6, 7, 9, 20},
    {4, 6, 7, 9, 20},
    {4, 5, 7, 9, 14, 20},
    {4, 5, 6, 10, 18},
    {2, 10, 11, 13, 18},
    {4, 5, 6, 7, 20},
    {7, 8, 11, 13, 18},
    {2, 3, 8, 10, 18},
    {1, 2, 14, 15, 16, 19},
    {3, 8, 10, 11, 18},
    {1, 2, 12, 15, 19},
    {2, 6, 12, 14, 20},
    {1, 12, 14, 17, 19},
    {1, 3, 5, 11, 16, 19},
    {7, 8, 10, 11, 13},
    {1, 2, 11, 16, 17},
    {4, 5, 6, 9, 15}
];
