n = 50;
allowed = [
    {8, 11, 17, 21, 22, 26, 40, 41, 43, 47},
    {16, 24, 25, 28, 29, 34, 35, 40, 45, 46, 50},
    {6, 9, 13, 18, 23, 27, 30, 36, 37, 49},
    {5, 6, 8, 19, 21, 33, 41, 42, 44, 47},
    {4, 6, 8, 18, 19, 30, 33, 42, 44, 47},
    {4, 5, 13, 18, 19, 27, 30, 33, 42, 47},
    {10, 12, 14, 16, 24, 26, 34, 38, 43, 46},
    {1, 4, 5, 6, 11, 21, 41, 42, 44, 47},
    {3, 5, 6, 13, 18, 23, 27, 35, 37, 49},
    {7, 12, 14, 16, 24, 32, 33, 34, 38, 39, 46},
    {1, 8, 14, 17, 20, 21, 26, 40, 41, 43},
    {7, 10, 14, 16, 20, 26, 38, 39, 43, 46},
    {3, 5, 6, 9, 18, 27, 30, 33, 36, 49},
    {7, 10, 12, 16, 17, 20, 26, 38, 43, 46},
    {9, 23, 28, 29, 35, 37, 45, 48, 49, 50},
    {2, 7, 10, 12, 24, 25, 29, 34, 38, 46},
    {1, 7, 11, 12, 14, 20, 26, 38, 40, 43},
    {3, 5, 6, 9, 13, 27, 30, 37, 44, 49},
    {4, 5, 6, 13, 30, 33, 36, 42, 44, 47},
    {7, 10, 11, 12, 14, 17, 26, 38, 39, 43},
    {1, 4, 5, 8, 11, 41, 42, 43, 44, 47},
    {1, 4, 8, 11, 17, 21, 29, 40, 41, 42, 47},
    {3, 9, 15, 18, 27, 28, 35, 37, 49, 50},
    {2, 7, 10, 16, 25, 29, 34, 35, 38, 46},
    {2, 10, 16, 24, 29, 31, 32, 34, 45, 46},
    {7, 10, 11, 12, 14, 17, 20, 38, 43, 46},
    {3, 5, 6, 9, 13, 18, 23, 30, 37, 49},
    {2, 15, 24, 25, 29, 34, 35, 45, 48, 50},
    {2, 16, 24, 25, 28, 31, 34, 35, 45, 50},
    {4, 5, 6, 13, 18, 19, 27, 33, 36, 42},
    {2, 10, 16, 22, 24, 25, 29, 32, 34, 45, 46},
    {10, 12, 16, 24, 25, 29, 31, 34, 39, 46},
    {4, 5, 6, 13, 19, 30, 36, 42, 44, 47},
    {2, 7, 10, 12, 16, 24, 25, 29, 38, 46},
    {2, 9, 16, 18, 24, 28, 29, 34, 45, 50},
    {3, 5, 6, 13, 18, 19, 27, 30, 33, 42},
    {3, 9, 15, 18, 23, 27, 28, 35, 49, 50},
    {7, 10, 12, 14, 16, 24, 26, 34, 43, 46},
    {7, 10, 12, 14, 20, 26, 32, 38, 43, 46},
    {1, 11, 14, 17, 20, 21, 22, 26, 41, 43},
    {1, 4, 8, 11, 21, 22, 40, 42, 44, 47},
    {4, 5, 6, 8, 19, 21, 33, 41, 44, 47},
    {7, 10, 11, 12, 14, 17, 20, 21, 26, 38},
    {4, 5, 6, 8, 19, 21, 33, 41, 42, 47},
    {2, 24, 25, 28, 29, 31, 34, 35, 48, 50},
    {7, 10, 12, 14, 16, 24, 25, 34, 38, 39},
    {4, 5, 6, 8, 19, 21, 33, 41, 42, 44},
    {2, 15, 23, 25, 28, 29, 35, 37, 45, 50},
    {3, 5, 6, 9, 13, 18, 23, 27, 30, 31, 37},
    {2, 15, 16, 24, 25, 28, 29, 34, 35, 45}
];
