n = 30;
allowed = [
    {2, 3, 5, 8, 10, 16, 18, 20, 24, 27},
    {1, 3, 5, 8, 10, 16, 17, 18, 20, 27},
    {1, 2, 5, 8, 10, 14, 16, 17, 18, 20, 27},
    {7, 9, 14, 15, 22, 23, 24, 25, 26, 28},
    {1, 2, 3, 8, 11, 16, 18, 20, 21, 27},
    {5, 7, 11, 12, 13, 21, 22, 27, 29, 30},
    {8, 11, 12, 13, 15, 22, 23, 26, 28, 29},
    {1, 3, 5, 7, 18, 20, 24, 26, 27, 28},
    {4, 7, 13, 15, 22, 23, 24, 25, 26, 28},
    {1, 8, 14, 17, 18, 19, 20, 24, 25, 28},
    {6, 7, 12, 13, 21, 22, 26, 27, 29, 30},
    {6, 7, 11, 13, 21, 22, 26, 27, 29, 30},
    {6, 7, 11, 12, 21, 22, 26, 27, 29, 30},
    {1, 4, 8, 10, 17, 18, 19, 24, 25, 28},
    {4, 7, 8, 9, 13, 22, 23, 24, 26, 28},
    {1, 2, 3, 5, 8, 17, 18, 20, 21, 27},
    {1, 3, 8, 10, 14, 18, 19, 20, 24, 25},
    {1, 2, 3, 8, 10, 17, 20, 24, 27, 28},
    {1, 8, 10, 14, 17, 18, 20, 24, 25, 28},
    {1, 2, 3, 5, 8, 10, 16, 17, 18, 19},
    {5, 6, 7, 8, 11, 12, 13, 27, 29, 30},
    {7, 9, 11, 12, 13, 15, 23, 26, 28, 29},
    {4, 7, 9, 13, 15, 22, 24, 26, 28, 29},
    {1, 4, 8, 10, 17, 18, 19, 25, 26, 28},
    {4, 9, 10, 14, 15, 17, 19, 24, 26, 28},
    {4, 7, 8, 9, 13, 15, 22, 23, 24, 28},
    {1, 5, 6, 7, 8, 11, 12, 13, 18, 21},
    {4, 7, 8, 9, 15, 18, 22, 24, 25, 26},
    {6, 7, 11, 12, 13, 21, 22, 26, 27, 30},
    {5, 6, 7, 11, 12, 13, 21, 22, 27, 29}
];
