n = 30;
allowed = [
    {2, 15, 21, 29, 30},
    {1, 15, 21, 29, 30},
    {1, 2, 4, 5, 14, 30},
    {1, 3, 14, 21, 30},
    {11, 13, 20, 28, 29},
    {13, 15, 17, 20, 29},
    {12, 19, 24, 26, 27},
    {10, 16, 18, 19, 24},
    {3, 4, 14, 22, 30},
    {18, 19, 24, 25, 26},
    {5, 13, 21, 22, 29},
    {2, 7, 19, 26, 27},
    {6, 15, 20, 21, 29},
    {3, 4, 9, 22, 30},
    {1, 2, 21, 29, 30},
    {3, 8, 9, 10, 18},
    {6, 10, 13, 20, 28, 29},
    {8, 10, 16, 19, 23, 25},
    {10, 24, 25, 26, 27},
    {6, 13, 17, 28, 29},
    {1, 2, 15, 29, 30},
    {4, 9, 11, 14, 29},
    {6, 7, 11, 12, 17, 26},
    {7, 10, 19, 25, 26},
    {7, 10, 19, 24, 26},
    {7, 19, 24, 25, 27},
    {2, 8, 12, 19, 24, 26},
    {5, 6, 13, 17, 20},
    {1, 2, 13, 15, 21},
    {1, 2, 3, 15, 21}
];
