n = 50;
allowed = [
    {4, 8, 12, 27, 28},
    {1, 4, 27, 35, 36},
    {15, 16, 22, 24, 44},
    {1, 2, 27, 28, 35},
    {21, 34, 40, 42, 49},
    {16, 26, 31, 35, 36},
    {9, 38, 47, 48, 50},
    {1, 10, 12, 19, 28},
    {7, 38, 47, 48, 50},
    {8, 12, 19, 32, 42},
    {3, 16, 25, 30, 36},
    {8, 10, 27, 30, 46},
    {18, 22, 24, 37, 38},
    {17, 43, 45, 48, 50},
    {3, 16, 22, 24, 37},
    {3, 11, 15, 22, 24},
    {14, 20, 41, 43, 50},
    {13, 15, 22, 24, 37, 45},
    {10, 31, 32, 33, 40, 42},
    {17, 29, 39, 41, 43},
    {5, 23, 25, 34, 42},
    {3, 13, 15, 24, 37},
    {21, 25, 30, 34, 46},
    {3, 13, 15, 22, 37},
    {21, 23, 30, 34, 46},
    {6, 15, 16, 18, 20, 31},
    {1, 2, 4, 12, 28},
    {1, 8, 10, 11, 12, 27},
    {17, 20, 39, 41, 49},
    {6, 12, 23, 25, 34, 46},
    {6, 16, 26, 35, 36},
    {10, 19, 33, 40, 42},
    {5, 10, 19, 32, 40},
    {5, 21, 23, 25, 42},
    {2, 4, 27, 31, 36},
    {6, 11, 16, 30, 31},
    {13, 15, 18, 22, 24},
    {7, 9, 13, 44, 47},
    {17, 20, 29, 41, 49},
    {5, 19, 32, 33, 42},
    {17, 20, 29, 39, 50},
    {5, 21, 23, 25, 34},
    {14, 17, 20, 40, 41, 45},
    {3, 13, 22, 24, 38},
    {14, 17, 20, 41, 43},
    {12, 23, 25, 30, 34},
    {7, 9, 38, 48, 50},
    {7, 9, 17, 32, 47, 50},
    {2, 5, 29, 39, 41, 50},
    {7, 9, 17, 47, 48}
];
