n = 30;
allowed = [
    {3, 4, 11, 14, 15, 16, 19, 24, 25, 27},
    {3, 4, 5, 9, 11, 13, 18, 22, 24, 29, 30},
    {4, 5, 6, 10, 16, 18, 21, 23, 24, 26},
    {3, 5, 6, 10, 16, 18, 21, 23, 24, 26},
    {2, 3, 4, 9, 13, 19, 22, 24, 29, 30},
    {3, 4, 10, 16, 18, 20, 21, 23, 26, 28},
    {3, 8, 10, 12, 16, 17, 21, 26, 27, 28},
    {7, 10, 12, 16, 17, 20, 21, 23, 26, 27, 28},
    {2, 3, 4, 5, 13, 19, 22, 24, 29, 30},
    {3, 4, 6, 7, 12, 16, 21, 23, 26, 28},
    {1, 3, 4, 14, 15, 16, 19, 24, 25, 27},
    {3, 7, 8, 10, 16, 17, 21, 23, 26, 28},
    {2, 3, 4, 5, 9, 19, 22, 24, 29, 30},
    {1, 3, 11, 15, 16, 17, 19, 21, 24, 25, 27},
    {1, 3, 11, 14, 16, 17, 19, 24, 25, 27},
    {3, 4, 7, 10, 17, 21, 23, 24, 26, 28},
    {3, 7, 10, 11, 12, 15, 16, 21, 26, 27},
    {2, 3, 4, 6, 10, 16, 23, 24, 26, 28},
    {1, 5, 9, 11, 13, 15, 22, 24, 25, 29},
    {2, 3, 4, 6, 10, 14, 18, 21, 23, 26, 28},
    {3, 4, 7, 10, 12, 16, 17, 23, 26, 28},
    {2, 3, 4, 5, 9, 13, 19, 24, 29, 30},
    {3, 4, 6, 10, 16, 18, 21, 24, 26, 28},
    {1, 3, 4, 5, 11, 13, 16, 18, 23, 26},
    {1, 3, 11, 13, 14, 15, 17, 19, 24, 27},
    {3, 4, 6, 10, 16, 18, 21, 23, 24, 28},
    {1, 3, 7, 11, 14, 15, 16, 17, 24, 25},
    {3, 6, 7, 10, 12, 16, 18, 21, 23, 26},
    {1, 2, 4, 5, 9, 13, 19, 22, 24, 30},
    {2, 4, 5, 9, 13, 18, 19, 22, 24, 29}
];
