n = 50;
allowed = [
    {2, 5, 17, 20, 23, 24, 35, 37, 45, 50},
    {1, 10, 17, 18, 23, 24, 35, 37, 45, 50},
    {8, 11, 22, 28, 31, 36, 38, 39, 44, 46},
    {1, 2, 17, 18, 24, 35, 37, 42, 45, 47, 48},
    {1, 13, 20, 23, 33, 34, 36, 43, 45, 46, 50},
    {7, 12, 14, 19, 21, 30, 31, 32, 40, 49},
    {5, 6, 12, 14, 21, 22, 30, 31, 32, 40, 49},
    {3, 11, 22, 28, 31, 36, 39, 40, 44, 46},
    {10, 15, 16, 17, 18, 25, 26, 29, 34, 42},
    {2, 9, 15, 17, 18, 24, 25, 26, 37, 50},
    {3, 8, 19, 22, 28, 31, 38, 39, 44, 46},
    {6, 7, 10, 14, 15, 21, 30, 32, 40, 49},
    {3, 5, 8, 20, 33, 36, 39, 43, 44, 46},
    {6, 7, 12, 21, 22, 30, 31, 32, 40, 49},
    {9, 10, 16, 25, 26, 27, 29, 34, 41, 42},
    {9, 10, 15, 25, 26, 27, 29, 34, 41, 42},
    {2, 9, 10, 18, 24, 25, 37, 42, 48, 50},
    {9, 10, 15, 16, 17, 25, 26, 37, 42, 48},
    {3, 8, 11, 28, 31, 38, 39, 40, 46, 49},
    {1, 5, 13, 23, 24, 33, 36, 43, 45, 50},
    {6, 7, 12, 14, 19, 30, 31, 32, 40, 49},
    {3, 8, 11, 23, 28, 31, 36, 39, 40, 46},
    {2, 8, 22, 24, 28, 31, 36, 40, 46, 50},
    {1, 2, 5, 10, 17, 23, 35, 37, 45, 50},
    {9, 10, 15, 16, 17, 18, 26, 29, 42, 48},
    {9, 15, 16, 18, 25, 27, 29, 34, 41, 42},
    {9, 12, 15, 16, 25, 26, 29, 34, 41, 42},
    {3, 8, 11, 19, 22, 31, 39, 40, 44, 46},
    {9, 12, 15, 16, 25, 26, 27, 34, 41, 42},
    {6, 7, 12, 14, 15, 21, 22, 32, 40, 49},
    {3, 8, 11, 19, 22, 28, 39, 40, 44, 46},
    {6, 7, 12, 14, 15, 21, 22, 30, 40, 49},
    {3, 5, 13, 20, 36, 39, 43, 44, 45, 46},
    {4, 9, 12, 15, 16, 25, 26, 27, 29, 41, 42},
    {1, 2, 4, 17, 18, 24, 37, 45, 47, 48},
    {3, 5, 8, 13, 23, 33, 39, 43, 44, 46},
    {1, 2, 4, 10, 17, 18, 24, 35, 47, 48},
    {3, 8, 11, 19, 28, 31, 32, 39, 40, 44, 46},
    {3, 8, 11, 22, 28, 31, 36, 38, 44, 46},
    {7, 8, 12, 14, 22, 23, 28, 31, 46, 49},
    {9, 12, 15, 16, 25, 26, 27, 29, 34, 42},
    {9, 10, 15, 16, 17, 18, 25, 26, 37, 48},
    {3, 5, 8, 13, 20, 33, 36, 39, 44, 46},
    {3, 8, 11, 22, 28, 31, 36, 38, 39, 46},
    {1, 2, 5, 20, 23, 24, 33, 36, 43, 50},
    {3, 8, 11, 22, 28, 31, 36, 39, 40, 44},
    {1, 2, 4, 17, 18, 24, 35, 37, 42, 48},
    {4, 9, 10, 17, 18, 25, 35, 37, 42, 47},
    {6, 7, 12, 14, 21, 22, 30, 31, 32, 40},
    {1, 2, 10, 12, 17, 22, 23, 24, 37, 45}
];
