n = 50;
allowed = [
    {11, 15, 36, 46},
    {5, 9, 13, 39},
    {4, 24, 26, 48},
    {3, 24, 26, 48},
    {2, 9, 13, 22},
    {18, 23, 42, 47},
    {17, 21, 33, 50},
    {6, 7, 12, 34, 50},
    {2, 5, 13, 22},
    {17, 21, 28, 31, 34},
    {1, 15, 36, 46},
    {7, 8, 34, 50},
    {5, 9, 22, 41},
    {25, 32, 43, 46},
    {1, 11, 36, 46},
    {3, 26, 31, 48},
    {7, 33, 35, 40},
    {6, 20, 23, 45, 47},
    {1, 13, 36, 41, 48},
    {6, 28, 37, 38, 42},
    {10, 26, 31, 34},
    {5, 9, 13, 29},
    {6, 15, 26, 31, 47},
    {3, 4, 16, 38, 48},
    {1, 11, 36, 46},
    {3, 16, 31, 48},
    {15, 17, 32, 40},
    {10, 21, 34, 37},
    {9, 13, 22, 30},
    {5, 9, 22, 29, 41},
    {10, 21, 23, 26},
    {15, 18, 27, 43, 46},
    {7, 17, 21, 50},
    {10, 21, 28, 50},
    {7, 17, 27, 33},
    {1, 11, 25, 46},
    {10, 23, 27, 28, 42},
    {6, 20, 42, 45},
    {2, 5, 9, 49},
    {14, 15, 16, 17, 27},
    {9, 13, 19, 22},
    {6, 20, 37, 38},
    {14, 27, 32, 46},
    {2, 13, 39, 45, 49},
    {18, 39, 44, 49},
    {9, 11, 15, 25, 36},
    {6, 23, 26, 31},
    {3, 4, 16, 26},
    {2, 39, 44, 45},
    {7, 12, 33, 34}
];
