n = 100;
allowed = [
    {39, 42, 44, 46, 54, 63, 89},
    {11, 19, 32, 34, 41, 90, 93},
    {4, 28, 29, 47, 53, 66, 67},
    {3, 28, 33, 47, 53, 66, 67},
    {35, 68, 71, 75, 76, 86, 94, 100},
    {23, 35, 60, 65, 74, 84, 87},
    {17, 24, 25, 29, 67, 77, 79},
    {11, 12, 19, 20, 37, 62, 96},
    {4, 33, 47, 53, 57, 68, 85},
    {14, 38, 40, 69, 82, 83, 89},
    {2, 12, 13, 19, 34, 37, 62},
    {8, 11, 13, 19, 34, 37, 62},
    {11, 12, 19, 20, 34, 37, 62},
    {10, 38, 56, 82, 83, 88, 97},
    {21, 36, 39, 41, 44, 56, 88},
    {26, 43, 49, 59, 65, 72, 87},
    {7, 25, 31, 45, 73, 77, 79, 87},
    {3, 23, 28, 51, 61, 73, 74, 98},
    {2, 11, 12, 13, 34, 37, 62},
    {8, 11, 12, 13, 19, 37, 62},
    {2, 15, 39, 41, 43, 91, 93},
    {30, 42, 46, 48, 63, 69, 89},
    {6, 18, 45, 51, 73, 74, 84},
    {7, 25, 27, 42, 54, 55, 95},
    {7, 17, 24, 29, 67, 77, 79},
    {6, 16, 49, 59, 60, 65, 87},
    {24, 25, 50, 55, 61, 81, 95},
    {3, 4, 45, 47, 66, 67, 73},
    {3, 7, 25, 53, 66, 67, 77},
    {22, 42, 46, 48, 52, 69, 81, 95},
    {8, 64, 71, 76, 86, 94, 96},
    {2, 11, 19, 34, 80, 90, 93},
    {3, 4, 9, 47, 78, 85, 99},
    {2, 11, 12, 19, 32, 37, 62, 80},
    {5, 6, 60, 70, 71, 84, 100},
    {15, 56, 58, 83, 88, 91, 97},
    {11, 12, 13, 19, 20, 34, 62},
    {10, 14, 40, 82, 83, 89, 97},
    {1, 15, 36, 44, 56, 63, 88},
    {10, 14, 38, 52, 78, 82, 83, 97},
    {2, 15, 21, 43, 49, 72, 93},
    {1, 22, 24, 46, 54, 63, 89},
    {16, 21, 41, 49, 59, 72, 92},
    {1, 15, 39, 56, 63, 88, 89},
    {7, 17, 28, 66, 73, 77, 79},
    {1, 22, 30, 42, 48, 63, 89},
    {3, 4, 9, 28, 33, 53, 85},
    {22, 30, 42, 46, 69, 81, 95},
    {16, 26, 41, 43, 59, 72, 92},
    {27, 55, 57, 61, 68, 81, 95},
    {18, 23, 28, 45, 73, 74, 98},
    {10, 14, 38, 40, 69, 82, 97},
    {3, 4, 9, 29, 47, 57, 67},
    {1, 24, 25, 42, 46, 63, 89},
    {24, 27, 50, 61, 68, 81, 95},
    {14, 36, 39, 44, 83, 88, 97},
    {9, 47, 50, 53, 55, 68, 85},
    {36, 56, 83, 90, 91, 93, 97},
    {16, 26, 43, 49, 72, 87, 92},
    {6, 16, 26, 35, 65, 71, 76, 92},
    {27, 48, 50, 55, 68, 81, 95},
    {11, 12, 13, 19, 20, 34, 37},
    {1, 39, 42, 44, 46, 54, 89},
    {5, 31, 71, 75, 76, 86, 94},
    {6, 16, 26, 49, 59, 60, 87},
    {3, 4, 28, 29, 45, 67, 73},
    {7, 25, 28, 29, 41, 53, 66, 77},
    {9, 27, 50, 53, 55, 57, 61},
    {10, 22, 30, 46, 48, 82, 89},
    {5, 6, 23, 35, 60, 74, 84, 100},
    {5, 35, 64, 75, 76, 86, 100},
    {16, 17, 43, 49, 59, 79, 92},
    {7, 17, 28, 45, 66, 67, 77},
    {6, 18, 23, 51, 73, 84, 98},
    {5, 64, 71, 76, 86, 94, 100},
    {5, 64, 71, 75, 86, 94, 100},
    {7, 17, 25, 45, 67, 73, 79},
    {3, 4, 9, 33, 47, 85, 99},
    {7, 17, 25, 45, 77, 87, 92},
    {11, 13, 19, 32, 34, 37, 57, 90},
    {27, 30, 48, 50, 55, 61, 95},
    {8, 10, 14, 22, 38, 46, 69, 89},
    {14, 36, 38, 44, 56, 88, 97},
    {5, 6, 23, 35, 70, 74, 100},
    {4, 9, 33, 47, 53, 57, 78},
    {5, 64, 71, 75, 76, 94, 100},
    {16, 17, 26, 45, 59, 65, 79},
    {1, 14, 36, 39, 44, 56, 83},
    {1, 22, 42, 46, 63, 69, 82},
    {2, 11, 32, 34, 58, 91, 93},
    {15, 21, 36, 56, 58, 90, 93, 98},
    {17, 39, 43, 49, 59, 72, 79},
    {2, 15, 21, 32, 41, 90, 91},
    {5, 64, 71, 75, 76, 86, 100},
    {24, 27, 42, 48, 55, 61, 81},
    {8, 12, 20, 26, 31, 43, 62},
    {14, 36, 38, 40, 56, 83, 88},
    {3, 4, 18, 23, 28, 51, 74},
    {3, 4, 9, 33, 47, 78, 84, 85},
    {5, 35, 70, 71, 75, 76, 86}
];
