n = 30;
allowed = [
    {2, 7, 16, 23, 29},
    {1, 6, 15, 16, 29},
    {7, 11, 23, 25, 26},
    {2, 9, 12, 17, 19, 20},
    {10, 13, 18, 24, 28, 30},
    {15, 18, 21, 27, 30},
    {1, 2, 16, 23, 29},
    {11, 12, 14, 25, 26},
    {4, 12, 17, 19, 20},
    {5, 13, 24, 28, 30},
    {8, 14, 21, 25, 26},
    {4, 9, 14, 17, 20},
    {5, 10, 24, 28, 30},
    {9, 11, 12, 13, 21, 22},
    {1, 2, 6, 16, 18, 29},
    {2, 6, 15, 18, 29},
    {4, 9, 12, 19, 20},
    {6, 15, 21, 27, 30},
    {4, 9, 14, 17, 20},
    {4, 9, 12, 17, 19},
    {6, 18, 22, 27, 30},
    {6, 18, 21, 27, 30},
    {1, 3, 7, 26, 29},
    {5, 10, 13, 28, 30},
    {3, 8, 11, 23, 26},
    {3, 11, 21, 23, 25},
    {6, 18, 21, 22, 29},
    {5, 10, 12, 13, 24, 30},
    {2, 6, 15, 16, 27},
    {5, 6, 15, 18, 22}
];
