n = 20;
allowed = [
    {2, 3, 7, 15, 16},
    {1, 6, 15, 16, 18},
    {1, 2, 6, 7, 11},
    {3, 9, 12, 17, 19, 20},
    {6, 10, 13, 15, 18},
    {2, 5, 13, 15, 16, 18},
    {1, 2, 3, 5, 15, 16},
    {3, 9, 11, 12, 14},
    {4, 12, 17, 19, 20},
    {5, 6, 8, 13, 15, 18},
    {3, 6, 8, 14, 17, 18},
    {4, 9, 14, 17, 20},
    {5, 6, 10, 15, 18},
    {9, 11, 12, 19, 20},
    {2, 5, 6, 16, 18},
    {1, 2, 6, 15, 18},
    {4, 9, 12, 19, 20},
    {2, 5, 6, 15, 16},
    {4, 9, 14, 17, 20},
    {4, 9, 12, 17, 19}
];
