n = 100;
allowed = [
    {3, 10, 23, 39, 41, 65, 91},
    {7, 10, 23, 37, 45, 65, 91},
    {1, 10, 23, 39, 41, 65, 91},
    {11, 33, 44, 51, 62, 72, 88},
    {9, 17, 36, 51, 52, 80, 98},
    {8, 12, 22, 29, 48, 54, 66},
    {10, 37, 45, 58, 60, 74, 79},
    {6, 29, 48, 54, 66, 82, 90},
    {17, 33, 36, 51, 52, 80, 98},
    {2, 7, 30, 37, 45, 65, 79},
    {4, 28, 31, 44, 67, 72, 93},
    {6, 22, 29, 54, 59, 66, 75},
    {27, 32, 34, 55, 76, 82, 90},
    {16, 26, 35, 43, 50, 64, 73, 81},
    {18, 25, 49, 68, 69, 85, 89},
    {14, 26, 43, 58, 60, 64, 81},
    {5, 9, 36, 51, 52, 80, 98},
    {15, 25, 57, 68, 69, 83, 89},
    {24, 46, 61, 66, 82, 90, 100},
    {38, 42, 56, 63, 83, 84, 99},
    {44, 49, 51, 62, 72, 85, 88},
    {12, 47, 54, 59, 75, 92, 97},
    {1, 3, 10, 39, 41, 65, 67, 91},
    {8, 19, 29, 46, 61, 82, 90},
    {15, 18, 49, 57, 68, 69, 89},
    {14, 16, 35, 40, 43, 64, 77},
    {13, 32, 34, 50, 55, 64, 76},
    {11, 30, 31, 39, 74, 79, 85, 93},
    {6, 8, 12, 48, 54, 66, 90},
    {7, 10, 31, 37, 68, 74, 79, 93},
    {10, 28, 30, 37, 74, 79, 93},
    {13, 27, 34, 55, 76, 82, 90},
    {4, 9, 36, 51, 52, 62, 88},
    {13, 27, 32, 42, 50, 55, 76, 82},
    {14, 26, 64, 77, 92, 95, 97},
    {5, 9, 17, 51, 52, 80, 98},
    {7, 10, 45, 58, 60, 74, 79},
    {20, 42, 63, 70, 78, 84, 99},
    {1, 3, 10, 23, 41, 65, 91},
    {26, 43, 77, 92, 94, 95, 97},
    {1, 3, 10, 23, 39, 65, 91},
    {20, 38, 53, 63, 70, 78, 84},
    {16, 26, 40, 73, 77, 94, 95},
    {4, 11, 21, 62, 67, 72, 88},
    {2, 7, 10, 24, 37, 50, 58, 60},
    {8, 19, 24, 61, 82, 90, 100},
    {22, 59, 69, 71, 75, 87, 96},
    {6, 29, 35, 54, 92, 95, 97},
    {21, 44, 67, 73, 85, 88, 96},
    {14, 16, 26, 45, 58, 60, 64},
    {9, 33, 36, 52, 62, 85, 88},
    {5, 9, 17, 33, 36, 80, 98},
    {42, 63, 70, 71, 78, 86, 87},
    {6, 12, 22, 29, 48, 78, 92, 97},
    {13, 27, 32, 34, 50, 64, 76},
    {20, 38, 57, 63, 83, 84, 99},
    {20, 25, 56, 68, 69, 83, 99},
    {7, 37, 45, 50, 60, 74, 81},
    {12, 22, 28, 47, 71, 75, 87, 96},
    {7, 37, 45, 58, 74, 79, 81},
    {8, 19, 24, 46, 66, 90, 100},
    {4, 9, 33, 44, 51, 72, 88},
    {20, 38, 42, 70, 78, 84, 99},
    {14, 16, 26, 35, 50, 58, 81},
    {1, 3, 10, 23, 39, 41, 91},
    {6, 8, 12, 19, 29, 61, 100},
    {16, 21, 44, 72, 73, 81, 94},
    {15, 18, 25, 57, 69, 83, 89},
    {18, 25, 47, 57, 59, 68, 89},
    {38, 42, 53, 63, 78, 84, 86},
    {47, 53, 59, 75, 78, 86, 87},
    {4, 33, 44, 51, 62, 67, 88},
    {26, 40, 43, 77, 94, 95, 96},
    {7, 30, 37, 58, 60, 79, 81},
    {12, 22, 47, 59, 71, 86, 87},
    {2, 13, 27, 32, 34, 50, 55},
    {26, 35, 40, 43, 73, 94, 95},
    {42, 53, 63, 71, 75, 86, 87, 96},
    {7, 30, 37, 58, 60, 74, 93},
    {5, 9, 17, 36, 51, 52, 98},
    {14, 16, 26, 43, 58, 60, 74},
    {8, 13, 24, 29, 32, 34, 90},
    {18, 20, 56, 57, 65, 68, 84, 99},
    {20, 38, 42, 56, 63, 70, 99},
    {9, 21, 49, 51, 62, 84, 88, 89},
    {53, 63, 70, 71, 75, 78, 87},
    {47, 59, 63, 71, 75, 78, 86},
    {4, 21, 44, 51, 62, 72, 85},
    {15, 18, 25, 49, 68, 69, 85},
    {6, 8, 13, 24, 29, 61, 82},
    {1, 2, 3, 23, 39, 41, 65},
    {35, 40, 48, 54, 77, 95, 97},
    {11, 28, 30, 31, 37, 74, 79},
    {16, 26, 40, 43, 73, 77, 95},
    {35, 40, 43, 77, 92, 94, 97},
    {40, 47, 59, 73, 77, 94, 95},
    {35, 40, 48, 54, 77, 92, 95},
    {5, 9, 17, 33, 36, 52, 80},
    {20, 42, 56, 57, 63, 83, 84},
    {6, 8, 12, 19, 29, 61, 66}
];
