n = 50;
allowed = [
    {11, 22, 41},
    {24, 29, 50},
    {13, 27, 49},
    {42, 44, 47},
    {4, 6, 42},
    {5, 30, 33},
    {14, 38, 43},
    {4, 21, 44},
    {18, 27, 49},
    {12, 15, 38, 46},
    {1, 21, 43},
    {10, 14, 38},
    {3, 27, 30},
    {7, 38, 43},
    {23, 28, 48},
    {24, 34, 46},
    {20, 26, 43},
    {9, 27, 36, 49},
    {6, 20, 33, 42},
    {17, 26, 43},
    {8, 11, 44},
    {1, 40, 41},
    {9, 15, 37, 49},
    {2, 16, 34},
    {29, 31, 45, 49},
    {17, 20, 34, 43},
    {3, 18, 49},
    {29, 45, 50},
    {2, 25, 45},
    {6, 13, 33},
    {25, 29, 32},
    {10, 25, 31},
    {6, 19, 30},
    {16, 24, 37, 46},
    {2, 28, 31, 50},
    {13, 30, 33, 41},
    {9, 23, 49},
    {7, 12, 14, 39},
    {10, 12, 46},
    {1, 11, 22, 33},
    {1, 21, 22, 29},
    {4, 5, 47},
    {14, 20, 26},
    {4, 8, 47},
    {28, 29, 50},
    {10, 12, 16},
    {4, 42, 44},
    {15, 28, 45},
    {9, 18, 27},
    {2, 28, 35}
];
