n = 30;
allowed = [
    {11, 17, 21, 22},
    {16, 24, 28, 29},
    {9, 13, 18, 27},
    {5, 6, 8, 21, 23},
    {4, 6, 8, 19},
    {5, 18, 19, 30},
    {10, 12, 14, 16},
    {4, 5, 11, 21},
    {3, 18, 23, 27},
    {1, 7, 12, 14, 16},
    {1, 17, 21, 26},
    {7, 10, 14, 20},
    {3, 6, 27, 30},
    {7, 12, 20, 26},
    {9, 10, 23, 28, 29},
    {2, 7, 10, 24},
    {11, 14, 20, 26},
    {6, 9, 13, 27},
    {4, 5, 6, 30},
    {12, 14, 17, 26},
    {1, 4, 8, 11},
    {1, 6, 8, 11, 21},
    {3, 9, 15, 27},
    {2, 7, 16, 28, 29},
    {2, 16, 24, 29},
    {11, 14, 17, 20},
    {3, 9, 13, 18},
    {2, 15, 25, 29},
    {2, 24, 25, 28},
    {5, 6, 13, 19}
];
