n = 50;
allowed = [
    {8, 13, 21, 41},
    {16, 17, 25, 38},
    {10, 16, 21, 33},
    {5, 28, 40, 45},
    {4, 28, 40, 45},
    {8, 13, 18, 27, 41},
    {24, 27, 44, 49},
    {13, 18, 41, 43},
    {24, 37, 46, 47},
    {3, 16, 19, 33},
    {12, 26, 38, 50},
    {25, 31, 38, 50},
    {6, 8, 18, 41},
    {7, 27, 44, 49},
    {4, 20, 23, 28},
    {3, 10, 19, 33},
    {1, 2, 21, 25, 37},
    {6, 8, 13, 43},
    {10, 16, 25, 33},
    {15, 23, 39, 48},
    {1, 3, 10, 16},
    {30, 32, 34, 47},
    {15, 20, 28, 48},
    {7, 9, 12, 44, 46},
    {12, 16, 19, 38},
    {11, 12, 31, 50},
    {7, 35, 39, 44},
    {4, 15, 23, 45},
    {4, 15, 36, 42},
    {19, 22, 32, 33},
    {12, 25, 38, 50},
    {19, 22, 29, 30, 33},
    {3, 10, 16, 19},
    {9, 22, 37, 47},
    {5, 7, 20, 27, 39},
    {4, 15, 29, 42},
    {9, 24, 34, 46},
    {12, 25, 31, 50},
    {7, 20, 27, 35},
    {2, 4, 5, 28, 45},
    {6, 8, 13, 43},
    {14, 15, 29, 36, 48},
    {8, 13, 18, 41},
    {4, 7, 14, 27, 49},
    {4, 5, 28, 40},
    {7, 9, 24, 37},
    {9, 22, 34, 37},
    {15, 20, 23, 28, 46},
    {7, 14, 27, 44},
    {11, 12, 26, 31}
];
