n = 30;
allowed = [
    {2, 3, 11, 16, 17, 19, 26},
    {8, 11, 14, 15, 18, 23, 25},
    {1, 8, 11, 13, 17, 19, 29},
    {5, 6, 7, 9, 20, 25, 30},
    {4, 6, 7, 9, 20, 24, 30},
    {4, 5, 7, 9, 10, 20, 25, 30},
    {5, 6, 10, 18, 24, 28, 30},
    {2, 10, 11, 18, 23, 24, 29},
    {4, 5, 6, 7, 20, 28, 30},
    {7, 8, 13, 18, 24, 28, 29},
    {2, 3, 8, 10, 18, 23, 29},
    {2, 14, 15, 21, 23, 25, 27},
    {8, 10, 11, 18, 24, 28, 29},
    {2, 12, 15, 21, 23, 25, 27},
    {2, 12, 14, 21, 23, 25, 27},
    {1, 2, 12, 14, 17, 19, 26},
    {1, 2, 3, 11, 16, 19, 26},
    {8, 10, 11, 13, 23, 24, 29},
    {1, 2, 3, 11, 16, 17, 26},
    {4, 5, 6, 9, 21, 25, 30},
    {4, 14, 15, 20, 22, 25, 27},
    {1, 12, 14, 15, 20, 21, 25, 27},
    {2, 6, 8, 10, 11, 18, 25},
    {7, 8, 10, 13, 18, 28, 29},
    {2, 5, 6, 14, 15, 20, 23},
    {1, 2, 6, 12, 14, 16, 17, 19},
    {2, 12, 14, 15, 21, 22, 25},
    {5, 6, 7, 10, 18, 24, 29},
    {8, 10, 11, 13, 18, 21, 24, 28},
    {4, 5, 6, 7, 9, 20, 25}
];
