n = 30;
allowed = [
    {16, 17, 19, 26},
    {8, 15, 23, 25},
    {1, 11, 13, 19},
    {5, 9, 20, 30},
    {4, 6, 7, 30},
    {4, 5, 20, 30},
    {5, 6, 24, 28},
    {10, 11, 18, 23},
    {4, 5, 20, 30},
    {8, 18, 24, 29},
    {2, 8, 18, 23},
    {2, 10, 14, 15, 27},
    {10, 18, 24, 29},
    {12, 15, 25, 27},
    {12, 14, 21, 25},
    {1, 17, 19, 26},
    {1, 16, 19, 26},
    {8, 10, 24, 29},
    {1, 16, 17, 26},
    {4, 5, 6, 30},
    {15, 20, 22, 25},
    {12, 15, 20, 21, 27},
    {2, 8, 13, 18, 25},
    {7, 10, 18, 28},
    {2, 6, 15, 23},
    {1, 16, 17, 19, 27},
    {12, 14, 15, 21},
    {3, 5, 7, 10, 24},
    {10, 13, 18, 22, 24},
    {4, 5, 9, 20}
];
