n = 50;
allowed = [
    {8, 18, 31, 39, 44},
    {3, 20, 31, 34, 41, 49},
    {2, 20, 31, 41, 49},
    {1, 9, 25, 28, 40, 43},
    {16, 27, 31, 37, 41},
    {11, 12, 21, 29, 30},
    {22, 26, 38, 46, 47},
    {1, 18, 24, 33, 39},
    {14, 15, 23, 34, 43, 48},
    {17, 19, 35, 36, 45},
    {6, 12, 13, 21, 29},
    {6, 11, 13, 21, 29},
    {7, 11, 12, 29, 46},
    {25, 32, 35, 40, 42},
    {22, 23, 26, 47, 48},
    {2, 5, 27, 31, 37, 41},
    {10, 19, 21, 35, 36, 45},
    {1, 8, 24, 33, 39},
    {10, 17, 35, 42, 45},
    {2, 3, 31, 44, 49},
    {6, 11, 12, 27, 30},
    {7, 15, 26, 38, 43, 47},
    {9, 15, 34, 48, 50},
    {8, 28, 33, 36, 40},
    {4, 14, 32, 36, 40},
    {7, 15, 22, 38, 47},
    {5, 8, 11, 21, 46},
    {8, 24, 26, 33, 38},
    {6, 11, 12, 13, 30},
    {6, 11, 12, 21, 29},
    {2, 3, 20, 41, 44},
    {5, 14, 25, 36, 40, 42},
    {4, 8, 18, 24, 28, 38},
    {9, 15, 23, 48, 50},
    {10, 17, 19, 42, 45},
    {10, 19, 24, 32, 40},
    {2, 3, 16, 31, 41},
    {7, 22, 26, 28, 47},
    {1, 8, 18, 31, 44},
    {14, 25, 32, 36, 42},
    {2, 3, 20, 31, 37},
    {14, 19, 32, 35, 40},
    {4, 9, 15, 26, 48},
    {3, 20, 31, 39, 49},
    {10, 17, 19, 35, 36},
    {7, 13, 22, 26, 38},
    {7, 15, 22, 26, 38},
    {9, 15, 23, 34, 50},
    {2, 3, 20, 31, 44},
    {15, 23, 34, 47, 48}
];
