n = 100;
allowed = [
    {10, 26, 41, 46, 48, 56, 57, 90, 93, 94},
    {4, 5, 14, 27, 34, 45, 49, 71, 80, 82},
    {35, 42, 58, 60, 65, 67, 69, 84, 95, 97},
    {2, 14, 27, 28, 34, 45, 49, 71, 80, 82},
    {1, 2, 26, 31, 41, 46, 56, 57, 80, 93},
    {12, 17, 23, 29, 50, 66, 68, 89, 92, 99},
    {4, 14, 16, 25, 28, 30, 45, 70, 71, 100},
    {11, 36, 42, 44, 55, 64, 78, 84, 88, 98},
    {5, 31, 34, 37, 39, 47, 49, 56, 80, 93},
    {1, 24, 26, 36, 41, 48, 59, 63, 78, 96},
    {8, 24, 35, 42, 48, 62, 63, 78, 88, 95},
    {6, 29, 32, 38, 43, 52, 68, 89, 92, 99},
    {3, 42, 58, 65, 67, 69, 76, 84, 97, 98},
    {2, 4, 19, 22, 27, 28, 45, 49, 51, 71, 82},
    {21, 33, 40, 53, 61, 73, 74, 75, 85, 86},
    {7, 25, 28, 30, 36, 44, 55, 64, 70, 96},
    {6, 20, 23, 29, 50, 66, 72, 77, 89, 92},
    {12, 32, 37, 43, 47, 79, 81, 87, 89, 91, 94},
    {2, 9, 14, 22, 27, 31, 34, 45, 49, 51},
    {23, 35, 58, 60, 62, 66, 67, 70, 72, 77, 83},
    {15, 33, 39, 53, 61, 73, 74, 75, 85, 86},
    {2, 14, 19, 27, 31, 34, 45, 49, 51, 75},
    {17, 20, 35, 50, 60, 66, 72, 77, 79, 83},
    {1, 10, 11, 36, 48, 59, 63, 78, 88, 90},
    {4, 7, 16, 27, 28, 70, 71, 82, 96, 100},
    {1, 5, 10, 41, 46, 56, 57, 80, 93, 94},
    {2, 4, 14, 19, 34, 45, 49, 71, 80, 82},
    {2, 4, 7, 14, 25, 27, 45, 71, 82, 100},
    {6, 12, 17, 32, 38, 68, 81, 89, 92, 99},
    {8, 16, 36, 44, 55, 59, 64, 70, 84, 96},
    {2, 5, 9, 19, 34, 39, 47, 49, 56, 80},
    {12, 18, 37, 43, 79, 81, 87, 89, 91, 92},
    {15, 21, 22, 51, 53, 61, 73, 74, 75, 86},
    {2, 5, 9, 19, 22, 27, 31, 49, 51, 80},
    {11, 20, 23, 58, 60, 62, 67, 72, 83, 95},
    {8, 10, 24, 44, 59, 63, 64, 78, 88, 96},
    {18, 39, 43, 46, 47, 56, 87, 91, 93, 94},
    {12, 29, 32, 40, 41, 52, 54, 68, 85, 89, 99},
    {5, 9, 31, 37, 47, 56, 61, 73, 87, 91},
    {21, 43, 52, 54, 61, 73, 74, 85, 87, 91},
    {1, 5, 10, 26, 46, 56, 57, 59, 80, 93},
    {3, 8, 11, 36, 44, 64, 84, 88, 95, 98},
    {18, 32, 37, 40, 54, 73, 81, 87, 89, 91},
    {8, 30, 36, 42, 55, 64, 78, 84, 88, 96},
    {2, 4, 14, 19, 27, 28, 34, 49, 71, 82},
    {1, 26, 41, 47, 48, 56, 57, 90, 93, 94},
    {9, 37, 39, 46, 56, 57, 90, 91, 93, 94},
    {1, 10, 24, 46, 57, 63, 78, 90, 93, 94},
    {2, 19, 22, 27, 31, 34, 45, 51, 80, 82},
    {6, 17, 20, 23, 35, 60, 66, 72, 77, 83},
    {2, 14, 19, 22, 27, 31, 34, 45, 49, 75},
    {12, 32, 38, 40, 43, 54, 73, 85, 87, 91},
    {15, 21, 33, 40, 61, 73, 74, 75, 85, 86},
    {18, 32, 40, 43, 52, 61, 73, 85, 87, 91},
    {8, 16, 30, 36, 42, 44, 64, 70, 84, 96},
    {1, 5, 26, 37, 46, 47, 57, 90, 93, 94},
    {1, 5, 26, 41, 46, 47, 56, 90, 93, 94},
    {3, 20, 35, 60, 65, 67, 69, 72, 83, 97},
    {1, 10, 24, 26, 36, 41, 48, 64, 78, 96, 100},
    {20, 23, 35, 58, 65, 67, 69, 72, 83, 97},
    {15, 21, 33, 39, 53, 73, 74, 75, 85, 86},
    {11, 20, 23, 24, 35, 48, 63, 77, 88, 95},
    {10, 11, 24, 36, 48, 62, 78, 88, 90, 95},
    {8, 10, 30, 36, 44, 55, 59, 78, 88, 96},
    {3, 13, 19, 35, 58, 60, 67, 69, 76, 83, 97},
    {6, 17, 20, 23, 50, 72, 77, 79, 83, 92},
    {3, 20, 35, 58, 60, 65, 69, 72, 83, 97},
    {6, 12, 17, 29, 32, 38, 52, 89, 92, 99},
    {3, 13, 35, 58, 60, 65, 67, 72, 83, 97},
    {7, 16, 25, 28, 30, 36, 42, 44, 55, 64, 96},
    {2, 4, 14, 25, 27, 28, 45, 49, 80, 82},
    {20, 23, 35, 50, 58, 60, 66, 67, 69, 83},
    {21, 37, 39, 40, 43, 54, 61, 85, 87, 91},
    {15, 21, 33, 40, 53, 61, 73, 75, 85, 86},
    {15, 19, 21, 22, 33, 51, 53, 61, 74, 86},
    {3, 13, 42, 58, 65, 67, 69, 84, 97, 98},
    {17, 20, 23, 62, 66, 79, 81, 83, 89, 92},
    {1, 10, 11, 24, 36, 48, 59, 63, 64, 88},
    {18, 23, 32, 66, 77, 81, 89, 90, 92, 94},
    {2, 4, 5, 26, 27, 31, 34, 41, 49, 82},
    {18, 32, 37, 43, 77, 79, 89, 90, 92, 94},
    {2, 4, 5, 14, 26, 27, 45, 49, 71, 80},
    {20, 23, 35, 58, 60, 66, 67, 69, 72, 95},
    {3, 8, 11, 36, 42, 44, 64, 88, 95, 98},
    {21, 40, 43, 52, 54, 61, 73, 74, 87, 91},
    {15, 21, 22, 33, 51, 53, 61, 62, 73, 74, 75},
    {18, 32, 37, 39, 40, 43, 47, 54, 73, 91},
    {8, 11, 24, 36, 42, 62, 63, 78, 84, 95},
    {12, 17, 18, 29, 32, 43, 77, 79, 81, 92},
    {1, 26, 41, 46, 47, 48, 56, 57, 93, 94},
    {18, 32, 37, 39, 40, 43, 47, 54, 73, 87},
    {17, 18, 23, 29, 32, 66, 77, 79, 81, 89},
    {1, 5, 26, 41, 46, 47, 56, 57, 90, 94},
    {1, 37, 41, 46, 47, 48, 56, 57, 90, 93},
    {3, 11, 20, 35, 58, 62, 63, 67, 83, 88},
    {8, 10, 16, 24, 30, 36, 44, 59, 64, 78},
    {3, 13, 35, 58, 60, 65, 67, 69, 72, 83},
    {3, 8, 13, 30, 42, 44, 55, 76, 84, 88},
    {6, 12, 17, 29, 32, 38, 52, 68, 89, 92},
    {4, 7, 14, 16, 25, 27, 28, 45, 53, 71, 82}
];
