n = 50;
allowed = [
    {2, 7, 29, 45, 46, 48, 49},
    {1, 15, 16, 29, 45, 46, 48},
    {23, 25, 34, 36, 37, 41, 49},
    {9, 12, 17, 19, 20, 39, 42},
    {10, 13, 18, 24, 30, 33, 50},
    {15, 18, 21, 22, 27, 29, 30},
    {1, 2, 13, 23, 34, 45, 48, 49},
    {11, 25, 31, 32, 38, 43, 47},
    {4, 12, 17, 20, 39, 40, 42},
    {5, 13, 24, 28, 30, 33, 50},
    {21, 25, 26, 31, 32, 37, 38},
    {4, 9, 17, 20, 39, 40, 44},
    {5, 10, 24, 28, 30, 33, 50},
    {9, 12, 21, 22, 31, 35, 44},
    {2, 6, 16, 18, 29, 30, 46},
    {2, 6, 15, 29, 45, 46, 48},
    {4, 9, 12, 20, 39, 40, 42},
    {6, 15, 21, 22, 27, 29, 30},
    {4, 9, 17, 20, 35, 42, 50},
    {4, 9, 12, 17, 39, 40, 42},
    {6, 15, 18, 22, 27, 29, 30},
    {6, 14, 18, 21, 27, 30, 50},
    {3, 34, 36, 37, 41, 45, 49},
    {5, 10, 13, 26, 28, 30, 33, 50},
    {3, 11, 26, 31, 32, 37, 38},
    {3, 11, 19, 25, 31, 32, 36, 37},
    {6, 15, 18, 21, 22, 29, 30},
    {5, 10, 13, 24, 30, 33, 50},
    {2, 6, 15, 16, 27, 45, 46},
    {5, 6, 15, 18, 22, 27, 50},
    {8, 11, 14, 26, 32, 43, 47},
    {11, 21, 26, 27, 31, 36, 37},
    {5, 10, 13, 24, 28, 30, 50},
    {1, 3, 7, 23, 36, 41, 49},
    {4, 9, 12, 14, 19, 22, 44},
    {3, 23, 26, 29, 34, 37, 45},
    {3, 11, 23, 25, 26, 32, 36},
    {3, 8, 11, 25, 26, 32, 37},
    {4, 9, 12, 17, 20, 40, 42},
    {4, 9, 12, 17, 20, 39, 44},
    {3, 7, 23, 34, 36, 37, 49},
    {4, 5, 9, 12, 17, 19, 20, 39},
    {8, 11, 12, 31, 40, 44, 47},
    {2, 9, 12, 14, 20, 35, 40, 43},
    {1, 2, 7, 23, 29, 36, 46},
    {2, 6, 15, 16, 29, 45, 48},
    {8, 11, 12, 31, 40, 43, 44},
    {1, 2, 7, 16, 29, 45, 46},
    {1, 3, 7, 23, 34, 41, 45},
    {5, 10, 18, 19, 22, 30, 35}
];
