n = 50;
allowed = [
    {19, 35, 42, 44, 46},
    {8, 23, 25, 37, 44, 46},
    {11, 33, 42, 46, 48},
    {5, 9, 20, 30, 39},
    {4, 6, 13, 30, 31, 40},
    {4, 5, 20, 30, 31},
    {28, 34, 38, 40, 45},
    {10, 18, 31, 33, 49},
    {4, 5, 30, 36, 39},
    {8, 18, 24, 31, 49},
    {2, 8, 18, 33, 37, 48},
    {14, 15, 27, 32, 47},
    {10, 18, 29, 33, 50},
    {12, 15, 27, 32, 47},
    {12, 14, 21, 25, 32},
    {1, 17, 19, 26, 35},
    {16, 19, 26, 42, 46},
    {8, 10, 24, 33, 49},
    {1, 17, 32, 35, 42, 46},
    {4, 6, 30, 39, 41},
    {15, 20, 22, 41, 43},
    {15, 21, 27, 41, 43, 45},
    {2, 8, 25, 31, 37},
    {10, 18, 28, 38, 49},
    {2, 6, 15, 23, 31},
    {1, 16, 17, 19, 35},
    {12, 14, 15, 32, 43},
    {7, 24, 34, 38, 45},
    {10, 13, 18, 33, 50},
    {4, 5, 9, 20, 39},
    {5, 6, 10, 18, 49},
    {2, 12, 14, 15, 44},
    {8, 10, 11, 18, 29},
    {7, 28, 36, 40, 45},
    {1, 19, 42, 44, 46},
    {4, 9, 30, 34, 39},
    {2, 11, 23, 35, 44},
    {7, 24, 28, 45, 49},
    {4, 9, 20, 30, 36},
    {5, 6, 7, 31, 34},
    {4, 20, 21, 30, 39},
    {1, 19, 35, 46, 48},
    {15, 21, 22, 27, 41},
    {1, 2, 19, 35, 37},
    {7, 24, 28, 34, 38},
    {1, 17, 19, 42, 48},
    {12, 14, 16, 32, 44},
    {1, 3, 17, 42, 46},
    {8, 10, 11, 18, 24, 31},
    {10, 13, 18, 29, 33, 34}
];
