n = 100;
allowed = [
    {6, 38, 55, 60, 67, 81, 98},
    {12, 14, 18, 19, 51, 61, 92},
    {7, 16, 17, 37, 39, 46, 90},
    {20, 34, 52, 58, 59, 87, 97},
    {6, 27, 63, 67, 71, 73, 88},
    {1, 55, 60, 63, 67, 81, 98},
    {16, 33, 39, 82, 84, 96, 99},
    {13, 20, 43, 56, 59, 64, 97},
    {8, 10, 13, 20, 31, 64, 74},
    {9, 31, 35, 36, 49, 74, 82},
    {21, 26, 29, 33, 72, 79, 84},
    {2, 18, 19, 47, 57, 61, 94, 97},
    {8, 9, 20, 31, 43, 64, 97},
    {2, 18, 23, 51, 65, 78, 91},
    {24, 45, 50, 68, 75, 76, 80},
    {7, 33, 39, 82, 90, 96, 99},
    {7, 16, 28, 37, 40, 46, 93},
    {2, 14, 19, 51, 61, 91, 92},
    {2, 12, 14, 18, 51, 57, 61},
    {4, 8, 9, 36, 43, 64, 97},
    {11, 26, 29, 32, 72, 79, 95},
    {3, 5, 32, 67, 73, 81, 83, 92},
    {14, 44, 48, 51, 65, 78, 91},
    {42, 45, 50, 68, 70, 75, 76, 100},
    {30, 53, 71, 75, 76, 80, 88},
    {11, 21, 72, 79, 84, 93, 95},
    {5, 6, 47, 63, 67, 71, 73, 88},
    {17, 37, 40, 46, 62, 86, 93},
    {11, 21, 26, 32, 38, 54, 72},
    {5, 47, 53, 69, 71, 73, 83},
    {8, 9, 10, 13, 20, 64, 74},
    {1, 11, 21, 29, 38, 55, 81},
    {7, 16, 54, 84, 93, 96, 99},
    {4, 38, 52, 58, 85, 87, 98},
    {7, 16, 39, 49, 82, 90, 94, 99},
    {4, 10, 20, 49, 74, 85, 87},
    {3, 16, 17, 28, 39, 40, 46},
    {1, 29, 32, 34, 55, 85, 87},
    {3, 7, 16, 35, 82, 90, 99},
    {17, 28, 33, 41, 62, 79, 84, 93},
    {42, 58, 59, 66, 70, 77, 100},
    {34, 41, 59, 66, 70, 77, 100},
    {8, 13, 20, 56, 59, 64, 97},
    {23, 62, 65, 78, 79, 91, 95},
    {24, 63, 68, 70, 75, 76, 100},
    {3, 16, 17, 28, 37, 39, 40},
    {30, 57, 61, 69, 83, 89, 92},
    {23, 28, 44, 51, 61, 62, 78, 86},
    {10, 35, 36, 39, 74, 82, 90},
    {15, 24, 32, 45, 68, 75, 76, 80},
    {2, 14, 18, 19, 23, 78, 91},
    {4, 20, 34, 38, 58, 85, 87},
    {25, 27, 30, 71, 73, 80, 88},
    {7, 33, 35, 82, 84, 96, 99},
    {1, 6, 32, 60, 67, 81, 98},
    {4, 8, 43, 58, 59, 64, 97},
    {2, 12, 19, 47, 61, 89, 94},
    {4, 8, 20, 52, 56, 59, 97},
    {4, 8, 43, 56, 58, 64, 97},
    {1, 6, 55, 67, 77, 81, 98},
    {2, 18, 19, 47, 57, 83, 92},
    {26, 40, 44, 72, 79, 93, 95},
    {5, 6, 27, 67, 71, 73, 88},
    {8, 9, 13, 20, 31, 43, 97},
    {26, 44, 62, 72, 79, 91, 95},
    {34, 41, 42, 56, 58, 59, 70},
    {1, 5, 6, 55, 60, 81, 98},
    {15, 24, 45, 50, 75, 76, 80},
    {22, 30, 47, 71, 73, 83, 92},
    {24, 41, 42, 45, 66, 77, 100},
    {5, 27, 30, 53, 63, 73, 88},
    {11, 21, 26, 79, 84, 93, 95},
    {5, 27, 30, 53, 63, 71, 88},
    {9, 10, 20, 31, 35, 36, 49},
    {15, 25, 45, 53, 68, 76, 80},
    {15, 24, 45, 50, 68, 75, 80},
    {1, 6, 34, 60, 70, 98, 100},
    {14, 23, 44, 48, 51, 65, 91},
    {11, 26, 62, 65, 72, 93, 95},
    {25, 30, 53, 71, 75, 76, 88},
    {1, 5, 6, 55, 60, 67, 98},
    {7, 16, 35, 39, 54, 90, 99},
    {22, 30, 47, 61, 69, 73, 92},
    {7, 11, 33, 72, 93, 96, 99},
    {1, 4, 34, 36, 38, 52, 86, 87},
    {17, 28, 37, 40, 46, 48, 62},
    {1, 4, 34, 36, 38, 52, 85},
    {5, 27, 30, 53, 63, 71, 73},
    {30, 47, 57, 69, 71, 83, 92},
    {3, 7, 16, 35, 39, 49, 82},
    {14, 23, 35, 44, 65, 78, 79, 95},
    {2, 18, 22, 47, 61, 69, 83},
    {17, 33, 40, 62, 79, 84, 96},
    {2, 12, 18, 19, 57, 61, 89},
    {11, 26, 44, 62, 65, 72, 79},
    {7, 16, 33, 54, 84, 93, 99},
    {8, 20, 43, 45, 56, 58, 59, 64},
    {1, 6, 55, 60, 67, 77, 81},
    {7, 16, 33, 54, 82, 84, 96},
    {24, 42, 45, 60, 63, 70, 77}
];
