n = 100;
allowed = [
    {12, 23, 37, 64, 79, 81, 91},
    {17, 34, 56, 82, 83, 88, 100},
    {41, 43, 47, 49, 65, 68, 70},
    {11, 19, 36, 54, 60, 73, 75},
    {6, 9, 39, 51, 64, 67, 91},
    {5, 9, 29, 56, 67, 74, 88},
    {13, 14, 35, 44, 48, 49, 65, 98},
    {15, 16, 38, 40, 50, 52, 85},
    {5, 23, 46, 61, 64, 67, 91},
    {18, 24, 27, 28, 32, 71, 72},
    {19, 29, 54, 73, 75, 88, 89},
    {1, 5, 37, 51, 64, 79, 91},
    {7, 22, 44, 49, 65, 76, 86},
    {7, 35, 44, 48, 49, 65, 98},
    {8, 16, 38, 40, 52, 58, 80},
    {8, 15, 21, 38, 45, 58, 80},
    {2, 11, 56, 73, 82, 88, 100},
    {10, 25, 27, 32, 71, 72, 92},
    {11, 29, 36, 54, 73, 75, 89},
    {7, 14, 26, 35, 49, 63, 70},
    {15, 16, 38, 45, 58, 60, 80},
    {13, 43, 51, 68, 76, 77, 86},
    {1, 5, 9, 61, 64, 81, 91},
    {10, 28, 32, 33, 69, 87, 92},
    {10, 18, 27, 50, 71, 84, 92},
    {3, 20, 41, 49, 63, 69, 70},
    {10, 18, 25, 32, 71, 72, 92},
    {10, 24, 32, 33, 69, 87, 92},
    {6, 11, 19, 54, 66, 67, 88},
    {31, 42, 54, 62, 66, 89, 96},
    {30, 42, 57, 62, 66, 89, 96},
    {10, 18, 24, 28, 71, 87, 92},
    {10, 24, 28, 41, 47, 57, 62, 69},
    {55, 78, 83, 94, 95, 99, 100},
    {7, 14, 20, 48, 65, 70, 98},
    {4, 11, 19, 42, 54, 73, 75, 86},
    {1, 12, 23, 64, 79, 81, 87, 91},
    {8, 15, 16, 21, 52, 58, 80},
    {5, 51, 66, 77, 89, 91, 96},
    {8, 15, 38, 50, 52, 85, 93},
    {3, 20, 47, 49, 61, 63, 69, 70},
    {30, 31, 36, 53, 54, 75, 89},
    {3, 13, 22, 57, 68, 77, 86},
    {7, 13, 14, 48, 65, 76, 86},
    {12, 16, 21, 38, 55, 58, 60, 80},
    {9, 23, 61, 74, 82, 90, 97},
    {3, 33, 41, 57, 62, 68, 69},
    {7, 14, 20, 35, 44, 65, 98},
    {3, 7, 13, 14, 41, 65, 70},
    {8, 40, 52, 53, 59, 85, 93},
    {5, 12, 22, 39, 64, 77, 84, 91},
    {8, 15, 38, 40, 50, 85, 93},
    {8, 42, 50, 52, 59, 72, 85},
    {11, 19, 29, 66, 73, 75, 89},
    {45, 60, 78, 83, 94, 95, 99},
    {2, 6, 17, 29, 67, 82, 88},
    {31, 37, 43, 47, 62, 68, 77, 96},
    {15, 16, 21, 38, 45, 60, 80},
    {8, 40, 50, 52, 53, 72, 85},
    {4, 16, 21, 45, 55, 58, 80},
    {9, 23, 46, 74, 81, 90, 97},
    {30, 31, 33, 47, 57, 89, 96},
    {3, 20, 26, 41, 49, 69, 70},
    {1, 5, 9, 12, 23, 51, 91},
    {3, 7, 13, 14, 44, 49, 86},
    {29, 30, 31, 39, 54, 89, 96},
    {5, 6, 9, 29, 56, 74, 88},
    {3, 13, 22, 43, 57, 77, 86},
    {24, 28, 32, 33, 41, 47, 63},
    {3, 7, 20, 26, 41, 49, 63},
    {10, 18, 25, 27, 32, 72, 92},
    {4, 10, 18, 27, 32, 59, 71, 85},
    {4, 11, 19, 29, 36, 54, 75},
    {9, 46, 61, 67, 82, 90, 97},
    {4, 11, 19, 36, 42, 54, 73},
    {7, 13, 14, 22, 44, 65, 86},
    {22, 39, 43, 51, 57, 68, 96},
    {34, 55, 83, 94, 95, 99, 100},
    {1, 12, 23, 37, 64, 81, 91},
    {15, 16, 21, 38, 45, 58, 60},
    {1, 9, 23, 37, 46, 61, 79},
    {46, 56, 61, 74, 88, 90, 97},
    {34, 55, 78, 94, 95, 99, 100},
    {25, 27, 33, 40, 50, 52, 71, 93},
    {8, 40, 50, 52, 53, 59, 72},
    {13, 22, 43, 44, 65, 68, 76},
    {10, 18, 24, 27, 28, 32, 76, 92},
    {5, 6, 11, 29, 56, 67, 74},
    {19, 30, 31, 42, 54, 66, 96},
    {9, 23, 46, 61, 74, 82, 97},
    {1, 5, 9, 12, 23, 51, 64},
    {10, 18, 27, 28, 32, 71, 87},
    {8, 15, 38, 40, 50, 52, 84},
    {34, 55, 78, 83, 95, 99, 100},
    {34, 55, 78, 83, 94, 99, 100},
    {31, 39, 57, 62, 66, 77, 89},
    {9, 46, 61, 67, 74, 82, 90},
    {7, 14, 20, 35, 44, 48, 65, 68},
    {34, 55, 60, 78, 83, 94, 95},
    {2, 17, 34, 56, 78, 83, 95}
];
