n = 50;
allowed = [
    {5, 9, 12, 22, 23, 37, 39},
    {4, 6, 11, 17, 19, 29, 34},
    {7, 13, 20, 41, 43, 47, 49},
    {11, 17, 19, 21, 29, 36, 42},
    {1, 6, 9, 12, 23, 29, 39},
    {5, 9, 11, 23, 29, 39, 46},
    {13, 14, 20, 35, 44, 48, 49},
    {15, 16, 21, 38, 40, 45, 50},
    {1, 5, 6, 12, 23, 29, 46},
    {18, 24, 25, 27, 28, 32, 33},
    {4, 6, 19, 29, 30, 36, 42},
    {1, 5, 9, 22, 23, 37, 39},
    {3, 7, 14, 22, 43, 44, 49},
    {7, 13, 20, 35, 44, 48, 49},
    {8, 16, 21, 38, 40, 45, 50},
    {8, 15, 21, 38, 40, 45, 50},
    {2, 4, 6, 11, 19, 29, 34},
    {10, 24, 25, 27, 28, 32, 50},
    {4, 11, 29, 30, 31, 36, 42},
    {7, 14, 26, 35, 41, 48, 49},
    {4, 8, 15, 16, 36, 38, 45},
    {3, 12, 13, 39, 42, 43, 44, 49},
    {1, 5, 6, 9, 12, 37, 46},
    {10, 18, 28, 32, 33, 41, 47},
    {8, 10, 18, 27, 32, 40, 50},
    {3, 20, 24, 35, 41, 47, 49},
    {10, 18, 24, 25, 28, 32, 50},
    {10, 18, 24, 27, 32, 33, 47},
    {5, 6, 11, 17, 19, 30, 31, 39},
    {11, 19, 31, 33, 36, 39, 42},
    {19, 30, 33, 39, 42, 43, 47},
    {10, 18, 24, 25, 27, 28, 33},
    {10, 24, 28, 31, 32, 37, 41, 47},
    {2, 4, 11, 17, 19, 36, 45},
    {7, 13, 14, 20, 44, 48, 49},
    {4, 11, 19, 21, 29, 30, 42},
    {1, 5, 9, 12, 22, 23, 46},
    {8, 15, 16, 21, 40, 45, 50},
    {5, 6, 12, 22, 29, 31, 43},
    {8, 15, 16, 25, 27, 38, 50},
    {3, 7, 20, 26, 33, 47, 49},
    {4, 11, 19, 21, 30, 31, 36},
    {3, 13, 22, 39, 41, 47, 49},
    {7, 13, 14, 22, 35, 48, 49},
    {4, 8, 15, 16, 21, 36, 38},
    {1, 5, 6, 9, 12, 21, 23, 29},
    {3, 24, 31, 33, 41, 43, 49},
    {7, 13, 14, 20, 35, 44, 49},
    {3, 7, 13, 14, 20, 35, 41},
    {8, 15, 16, 25, 27, 38, 40}
];
