n = 100;
allowed = [
    {8, 19, 20, 36, 65, 80, 94},
    {11, 55, 76, 77, 80, 86, 89, 98},
    {19, 21, 24, 42, 64, 65, 66},
    {18, 45, 68, 71, 74, 84, 88},
    {14, 25, 31, 37, 38, 61, 91},
    {18, 33, 41, 45, 67, 72, 96},
    {10, 12, 25, 85, 91, 95, 97},
    {17, 20, 21, 30, 79, 80, 100},
    {3, 29, 36, 42, 65, 66, 94},
    {6, 7, 12, 39, 67, 72, 87},
    {2, 15, 76, 77, 86, 89, 98},
    {7, 10, 28, 67, 71, 72, 74, 91},
    {22, 26, 27, 28, 40, 46, 100},
    {5, 25, 37, 85, 91, 95, 97},
    {2, 16, 58, 76, 87, 90, 98},
    {15, 39, 58, 67, 87, 90, 98},
    {22, 26, 27, 30, 40, 79, 100},
    {4, 6, 33, 41, 45, 84, 88},
    {3, 21, 36, 42, 65, 66, 94},
    {8, 19, 21, 24, 30, 64, 83},
    {3, 19, 20, 24, 42, 64, 66},
    {13, 17, 26, 28, 40, 79, 93},
    {34, 43, 48, 56, 59, 70, 73},
    {3, 21, 42, 61, 64, 65, 66},
    {7, 14, 37, 85, 91, 95, 97},
    {13, 17, 27, 30, 40, 79, 100},
    {13, 26, 30, 40, 50, 83, 100},
    {13, 22, 26, 27, 46, 49, 93},
    {9, 31, 34, 35, 48, 73, 99},
    {17, 26, 27, 40, 79, 83, 100},
    {5, 29, 38, 68, 71, 74, 99},
    {39, 60, 62, 69, 81, 89, 90},
    {18, 41, 44, 45, 56, 84, 88},
    {23, 35, 43, 48, 59, 73, 99},
    {23, 29, 34, 43, 48, 73, 99},
    {3, 9, 19, 42, 65, 66, 94},
    {5, 14, 25, 85, 91, 95, 97},
    {5, 14, 24, 31, 37, 61, 74},
    {10, 16, 32, 67, 87, 90, 98},
    {13, 17, 26, 27, 30, 38, 79, 100},
    {6, 18, 33, 44, 72, 88, 96},
    {3, 19, 21, 24, 64, 65, 66},
    {23, 34, 48, 56, 59, 70, 73},
    {18, 33, 41, 56, 70, 88, 96},
    {4, 6, 18, 33, 68, 84, 88},
    {13, 22, 28, 49, 53, 57, 93},
    {52, 63, 69, 75, 78, 81, 82},
    {34, 35, 43, 56, 70, 73, 88},
    {13, 22, 28, 46, 53, 57, 93, 99},
    {13, 14, 25, 27, 28, 85, 92},
    {47, 55, 60, 62, 63, 69, 89},
    {47, 54, 57, 75, 78, 82, 92},
    {22, 28, 46, 49, 54, 57, 93},
    {47, 49, 52, 53, 57, 75, 78},
    {2, 51, 60, 62, 63, 77, 89},
    {18, 33, 43, 44, 48, 70, 88},
    {46, 47, 52, 54, 78, 82, 92},
    {15, 16, 39, 67, 72, 87, 96},
    {23, 34, 35, 43, 48, 70, 73},
    {51, 55, 62, 63, 69, 77, 89},
    {5, 21, 24, 27, 38, 64, 83},
    {32, 51, 55, 60, 63, 69, 89},
    {47, 51, 55, 60, 62, 69, 75, 79},
    {3, 19, 21, 24, 42, 65, 66},
    {3, 19, 36, 42, 64, 66, 94},
    {3, 19, 36, 42, 64, 65, 94},
    {6, 10, 12, 16, 39, 72, 87},
    {4, 18, 45, 71, 74, 84, 88},
    {47, 51, 60, 62, 63, 75, 81},
    {23, 34, 43, 44, 48, 56, 59},
    {4, 12, 37, 45, 68, 74, 91},
    {6, 10, 41, 58, 67, 87, 96},
    {23, 33, 34, 35, 43, 48, 59, 70},
    {4, 31, 37, 45, 68, 71, 91},
    {47, 51, 52, 54, 63, 69, 78},
    {2, 11, 15, 77, 86, 89, 98},
    {2, 11, 55, 76, 86, 89, 98},
    {47, 52, 54, 57, 69, 75, 82},
    {17, 22, 26, 27, 30, 40, 100},
    {1, 8, 19, 20, 21, 65, 94},
    {32, 47, 62, 63, 69, 82, 97},
    {47, 52, 57, 78, 81, 92, 97},
    {20, 21, 24, 27, 30, 61, 64},
    {4, 18, 33, 45, 56, 68, 88},
    {7, 14, 25, 37, 91, 95, 97},
    {2, 11, 55, 76, 77, 89, 98},
    {6, 10, 16, 39, 58, 67, 72},
    {4, 18, 33, 45, 56, 68, 84},
    {2, 55, 62, 76, 77, 90, 98},
    {16, 32, 39, 59, 62, 76, 89, 98},
    {7, 14, 25, 37, 71, 74, 95},
    {50, 52, 57, 82, 85, 95, 97},
    {13, 22, 28, 46, 49, 53, 57},
    {3, 9, 19, 32, 36, 42, 65, 66},
    {7, 14, 16, 25, 37, 85, 91, 97},
    {6, 18, 33, 41, 44, 72, 87},
    {7, 14, 25, 37, 85, 91, 95},
    {2, 11, 15, 16, 76, 89, 90},
    {4, 29, 31, 34, 35, 48, 63, 84},
    {13, 17, 26, 27, 30, 40, 79}
];
