n = 20;
allowed = [
    {2, 7, 10, 12, 20},
    {7, 13, 14, 15, 20},
    {8, 9, 11, 13, 18},
    {5, 6, 11, 17, 19},
    {6, 14, 16, 17, 19},
    {2, 5, 14, 15, 16},
    {1, 2, 12, 15, 20},
    {3, 9, 11, 13, 18, 19},
    {3, 8, 11, 13, 18},
    {1, 7, 12, 15, 20},
    {3, 6, 8, 9, 18},
    {1, 7, 10, 15, 20},
    {2, 7, 14, 15, 20},
    {6, 7, 10, 15, 16},
    {2, 7, 10, 14, 16},
    {5, 6, 10, 14, 15},
    {4, 5, 6, 16, 19},
    {3, 6, 8, 9, 11},
    {4, 5, 6, 16, 17},
    {1, 2, 7, 9, 10, 12}
];
