n = 50;
allowed = [
    {3, 10, 16, 17, 36},
    {23, 24, 27, 28, 44},
    {1, 10, 16, 17, 36},
    {38, 39, 43, 49, 50},
    {10, 15, 16, 17, 20},
    {13, 31, 33, 39, 40},
    {29, 37, 38, 42, 45},
    {12, 18, 30, 35, 47},
    {19, 20, 25, 32, 41},
    {3, 5, 16, 17, 36},
    {13, 22, 33, 34, 48},
    {8, 18, 21, 22, 44, 48},
    {6, 21, 33, 40, 46},
    {4, 22, 29, 31, 39, 49},
    {3, 5, 16, 17, 24, 42},
    {1, 3, 5, 10, 17},
    {1, 3, 5, 10, 16},
    {12, 21, 36, 40, 46},
    {9, 20, 25, 32, 41},
    {10, 25, 32, 41, 44},
    {13, 18, 40, 46, 48},
    {11, 13, 21, 34, 48},
    {2, 24, 27, 30, 47},
    {2, 23, 27, 28, 47},
    {9, 19, 20, 32, 41},
    {6, 13, 31, 33, 34, 45},
    {2, 23, 24, 28, 44},
    {2, 23, 24, 27, 47},
    {4, 14, 37, 38, 49},
    {23, 24, 28, 35, 47},
    {6, 13, 33, 39, 43},
    {9, 20, 25, 41, 44},
    {6, 13, 31, 40, 46},
    {11, 22, 26, 33, 48},
    {8, 23, 24, 30, 47},
    {1, 3, 10, 16, 18},
    {7, 29, 38, 49, 50},
    {4, 29, 37, 49, 50},
    {4, 6, 14, 31, 43},
    {6, 13, 21, 33, 46},
    {9, 19, 20, 25, 32},
    {7, 15, 37, 45, 50},
    {4, 31, 39, 40, 46},
    {2, 20, 27, 32, 41},
    {7, 12, 29, 37, 38, 42},
    {6, 13, 21, 33, 40},
    {23, 24, 27, 30, 35},
    {11, 13, 21, 22, 34},
    {4, 14, 29, 38, 50},
    {4, 29, 37, 38, 49}
];
