n = 20;
allowed = [
    {2, 3, 5, 6, 7, 10, 11, 15, 16, 18},
    {1, 3, 5, 6, 7, 10, 11, 15, 16, 18},
    {1, 2, 6, 7, 8, 11, 14, 15, 16, 18},
    {5, 9, 10, 11, 12, 14, 17, 18, 19, 20},
    {1, 2, 6, 10, 13, 14, 15, 16, 18, 19},
    {1, 2, 5, 7, 10, 13, 14, 15, 16, 18},
    {1, 2, 3, 5, 6, 10, 11, 12, 15, 16, 18},
    {3, 4, 6, 9, 11, 12, 14, 17, 18, 20},
    {4, 5, 6, 11, 12, 14, 17, 18, 19, 20},
    {1, 2, 5, 6, 13, 14, 15, 16, 18, 19},
    {1, 2, 3, 6, 7, 8, 12, 14, 15, 18},
    {4, 6, 8, 9, 11, 14, 17, 18, 19, 20},
    {1, 2, 5, 6, 10, 14, 15, 16, 18, 19},
    {4, 6, 8, 9, 11, 12, 17, 18, 19, 20},
    {1, 2, 5, 6, 7, 10, 11, 13, 16, 18},
    {1, 2, 3, 5, 6, 7, 10, 13, 15, 18},
    {4, 5, 9, 10, 11, 12, 14, 18, 19, 20},
    {1, 2, 5, 6, 10, 11, 13, 14, 15, 16},
    {4, 5, 6, 9, 10, 12, 14, 17, 18, 20},
    {4, 5, 9, 10, 11, 12, 14, 17, 18, 19}
];
