n = 100;
allowed = [
    {19, 20, 65, 80, 90, 94},
    {11, 76, 77, 86, 89},
    {19, 42, 64, 65, 66},
    {45, 68, 71, 84, 88},
    {14, 25, 37, 38, 61},
    {18, 33, 41, 72, 96},
    {10, 12, 91, 95, 97},
    {17, 20, 21, 30, 80},
    {29, 36, 65, 66, 94},
    {7, 12, 39, 67, 72, 99},
    {2, 76, 77, 86, 98},
    {7, 10, 67, 71, 91},
    {22, 26, 27, 28, 40},
    {5, 25, 37, 91, 95},
    {2, 16, 58, 76, 98},
    {15, 39, 58, 87, 90},
    {26, 30, 40, 79, 100},
    {6, 33, 45, 84, 88},
    {3, 42, 65, 66, 94},
    {8, 21, 30, 64, 83},
    {3, 20, 24, 42, 64},
    {13, 17, 26, 28, 79},
    {34, 43, 59, 70, 73},
    {3, 21, 42, 64, 66, 70},
    {14, 37, 85, 95, 97},
    {17, 30, 40, 79, 100},
    {26, 30, 40, 83, 100},
    {13, 22, 26, 46, 93},
    {9, 31, 34, 35, 99},
    {17, 26, 40, 79, 100},
    {5, 38, 71, 74, 99},
    {39, 62, 69, 81, 90},
    {18, 44, 56, 84, 88},
    {23, 35, 43, 48, 73},
    {34, 43, 48, 73, 99},
    {3, 19, 53, 65, 66, 94},
    {14, 25, 85, 91, 95},
    {5, 14, 31, 37, 58, 61},
    {10, 16, 32, 87, 90},
    {17, 26, 30, 79, 100},
    {6, 18, 33, 44, 81, 96},
    {3, 21, 24, 64, 66},
    {23, 34, 48, 70, 73},
    {18, 33, 41, 56, 70},
    {4, 18, 68, 84, 88},
    {13, 20, 28, 49, 53, 93},
    {63, 69, 75, 78, 81},
    {34, 35, 43, 56, 73},
    {13, 28, 46, 53, 93},
    {13, 14, 27, 28, 92},
    {55, 60, 62, 63, 69},
    {54, 57, 78, 82, 92},
    {22, 46, 49, 54, 93},
    {47, 52, 57, 75, 78},
    {51, 60, 62, 77, 89},
    {33, 43, 44, 48, 70},
    {52, 54, 78, 82, 92},
    {15, 16, 39, 72, 87},
    {23, 34, 43, 70, 73},
    {51, 55, 62, 63, 69},
    {5, 24, 27, 64, 83},
    {32, 51, 55, 60, 69},
    {47, 51, 60, 69, 75},
    {3, 21, 24, 42, 66},
    {3, 19, 36, 66, 94},
    {3, 19, 36, 42, 65},
    {6, 10, 12, 72, 87},
    {4, 45, 71, 84, 88},
    {47, 51, 60, 62, 63},
    {23, 43, 48, 56, 59},
    {4, 45, 68, 74, 91},
    {6, 41, 67, 87, 96},
    {23, 34, 35, 43, 48},
    {4, 31, 68, 71, 91},
    {47, 54, 63, 69, 78, 82},
    {2, 11, 15, 89, 98},
    {2, 11, 55, 86, 89},
    {47, 52, 54, 57, 75},
    {17, 26, 30, 40, 100},
    {1, 8, 19, 20, 65},
    {32, 47, 62, 69, 82},
    {47, 52, 57, 81, 92},
    {20, 21, 27, 30, 61},
    {4, 18, 45, 68, 88},
    {14, 25, 37, 72, 95, 97},
    {2, 11, 76, 77, 89},
    {16, 39, 58, 67, 72, 79},
    {4, 18, 33, 45, 84},
    {2, 55, 76, 77, 98},
    {16, 31, 32, 39, 89, 98},
    {14, 25, 37, 38, 71, 74},
    {50, 52, 57, 82, 97},
    {22, 28, 46, 49, 53},
    {3, 19, 36, 65, 66},
    {25, 37, 85, 91, 97},
    {6, 18, 41, 44, 72},
    {14, 25, 37, 85, 95},
    {2, 15, 76, 89, 90},
    {29, 34, 35, 48, 84},
    {3, 17, 26, 30, 40, 79}
];
