n = 30;
allowed = [
    {5, 9, 12, 22, 23},
    {4, 6, 11, 17, 29},
    {7, 13, 14, 20, 22},
    {11, 17, 19, 21, 29},
    {6, 9, 12, 23, 29},
    {5, 9, 11, 23, 29},
    {3, 13, 14, 20, 22},
    {7, 15, 16, 21, 25, 27},
    {1, 5, 6, 12, 23},
    {18, 24, 25, 27, 28},
    {4, 6, 19, 29, 30},
    {1, 5, 9, 22, 23},
    {3, 7, 14, 20, 22},
    {3, 7, 13, 20, 26},
    {4, 8, 16, 21, 25},
    {4, 8, 15, 21, 25},
    {2, 6, 11, 15, 19, 29},
    {2, 10, 24, 25, 27, 28},
    {4, 11, 17, 29, 30},
    {3, 7, 13, 14, 16, 26},
    {4, 8, 15, 16, 19},
    {3, 5, 7, 12, 13},
    {1, 5, 6, 9, 12},
    {10, 18, 26, 27, 28},
    {8, 10, 18, 27, 28},
    {3, 7, 20, 24, 28},
    {10, 18, 24, 25, 28},
    {10, 18, 24, 26, 27},
    {5, 6, 11, 17, 19},
    {4, 10, 11, 19, 29}
];
