n = 50;
allowed = [
    {9, 31, 37},
    {20, 30, 42},
    {15, 35, 50},
    {23, 32, 47},
    {14, 18, 29},
    {24, 30, 49},
    {10, 20, 46},
    {26, 28, 34},
    {1, 40, 43},
    {7, 42, 46},
    {17, 31, 37, 44},
    {6, 8, 24, 30},
    {17, 22, 31},
    {5, 22, 29},
    {3, 28, 33},
    {13, 22, 39},
    {13, 31, 45},
    {5, 36, 39},
    {25, 41, 49},
    {2, 7, 36},
    {27, 28, 47, 48},
    {13, 14, 29},
    {4, 25, 32},
    {6, 12, 30},
    {19, 23, 48},
    {4, 17, 31, 45},
    {21, 47, 48},
    {3, 8, 15},
    {14, 16, 22},
    {6, 41, 49},
    {13, 17, 45},
    {4, 23, 25},
    {3, 15, 45},
    {4, 8, 43},
    {3, 44, 50},
    {18, 20, 39},
    {1, 11, 31},
    {9, 19, 25, 48},
    {16, 18, 36},
    {4, 34, 38, 43},
    {6, 19, 49},
    {2, 12, 26, 30},
    {4, 34, 40},
    {3, 35, 50},
    {17, 26, 31},
    {7, 10, 42},
    {23, 27, 48},
    {25, 27, 47},
    {6, 19, 41},
    {3, 7, 35, 44}
];
