n = 30;
allowed = [
    {6, 8, 13, 17, 21},
    {4, 12, 16, 17, 21, 25},
    {10, 16, 19, 21, 25},
    {5, 9, 15, 23, 28, 29},
    {4, 8, 15, 18, 28},
    {1, 5, 8, 13, 18},
    {9, 14, 20, 24, 27},
    {1, 5, 6, 13, 18},
    {7, 14, 22, 24, 27, 29},
    {3, 16, 19, 21, 25},
    {2, 12, 17, 25, 26},
    {11, 16, 19, 25, 26},
    {1, 5, 6, 8, 18},
    {7, 12, 20, 23, 24, 27},
    {4, 20, 23, 28, 29},
    {3, 10, 19, 21, 25},
    {1, 2, 3, 21, 25},
    {1, 5, 6, 8, 13},
    {3, 10, 16, 25, 30},
    {14, 15, 23, 27, 28},
    {1, 3, 10, 16, 17},
    {9, 16, 19, 24, 30},
    {4, 15, 20, 28, 29},
    {7, 9, 14, 22, 27},
    {3, 10, 12, 16, 19},
    {2, 11, 12, 16, 25},
    {7, 14, 20, 23, 24},
    {4, 5, 15, 20, 23},
    {4, 5, 15, 23, 28},
    {10, 16, 19, 22, 25}
];
