n = 100;
allowed = [
    {11, 62, 71, 84},
    {29, 50, 55, 56},
    {27, 65, 77, 81, 90},
    {5, 42, 44, 47},
    {4, 6, 31, 42, 88},
    {5, 30, 33, 88},
    {14, 38, 70, 87},
    {4, 21, 44, 79},
    {18, 49, 54, 74},
    {12, 23, 46, 57, 92},
    {1, 53, 69, 71, 100},
    {10, 57, 59, 92},
    {65, 80, 89, 95},
    {7, 38, 43, 87},
    {23, 48, 73, 97},
    {24, 34, 46, 60},
    {20, 26, 53, 100},
    {9, 27, 74, 77, 88},
    {33, 51, 67, 78},
    {17, 26, 83, 86},
    {3, 8, 11, 79, 84},
    {1, 58, 62, 82},
    {15, 37, 73, 97},
    {16, 34, 60, 70},
    {29, 55, 75, 76},
    {20, 43, 53, 83},
    {41, 66, 74, 77, 81},
    {45, 50, 56, 98},
    {25, 45, 55, 64},
    {6, 69, 80, 85},
    {25, 32, 44, 75, 76},
    {31, 68, 76, 94},
    {6, 19, 51, 67, 94},
    {16, 24, 60, 70},
    {50, 52, 56, 61},
    {30, 69, 80, 85},
    {9, 23, 48, 49, 73},
    {7, 14, 57, 87},
    {12, 59, 90, 92},
    {22, 62, 82, 99},
    {58, 62, 71, 84},
    {4, 5, 47, 78},
    {14, 20, 26, 51, 87},
    {4, 5, 8, 47},
    {29, 55, 64, 98},
    {10, 16, 57, 92},
    {4, 8, 42, 44},
    {15, 63, 97, 98},
    {27, 74, 77, 81},
    {2, 28, 35, 56},
    {19, 42, 67, 78},
    {9, 35, 54, 56},
    {11, 17, 20, 26},
    {9, 35, 52, 61, 87},
    {2, 29, 45, 64},
    {2, 28, 35, 50},
    {10, 12, 46, 92},
    {22, 41, 62, 84},
    {12, 83, 86, 93},
    {16, 24, 34, 70},
    {35, 52, 54, 72},
    {1, 22, 71, 82},
    {45, 48, 64, 89, 98},
    {29, 45, 55, 98},
    {13, 66, 89, 95},
    {13, 27, 77, 89},
    {19, 33, 51, 78},
    {31, 32, 91, 94},
    {30, 36, 80, 85},
    {7, 34, 60, 96},
    {1, 11, 62, 84},
    {35, 61, 70, 96},
    {15, 23, 37, 52},
    {27, 49, 77, 81},
    {25, 29, 55, 76, 80},
    {25, 29, 31, 75},
    {27, 49, 74, 81},
    {19, 42, 51, 67},
    {8, 21, 44, 84},
    {13, 30, 89, 95},
    {27, 49, 74, 77},
    {1, 22, 40, 62},
    {20, 26, 86, 93},
    {1, 21, 41, 71},
    {30, 36, 69, 80},
    {20, 24, 59, 83, 93},
    {7, 14, 38, 43},
    {5, 6, 18, 74},
    {13, 21, 65, 80, 95},
    {5, 12, 39, 59, 92},
    {32, 39, 68, 94},
    {10, 12, 46, 57},
    {20, 59, 83, 86},
    {32, 39, 68, 91},
    {13, 65, 80, 89},
    {7, 43, 70, 72},
    {15, 23, 48, 73},
    {45, 55, 63, 64},
    {17, 40, 82, 100},
    {11, 17, 53, 99}
];
