n = 30;
allowed = [
    {4, 5, 6, 21, 22, 27, 29},
    {12, 14, 18, 19, 22, 23, 26},
    {7, 10, 11, 16, 17, 26, 28},
    {1, 8, 9, 10, 13, 20, 29},
    {1, 6, 22, 25, 27, 29, 30},
    {1, 5, 21, 22, 27, 29, 30},
    {3, 11, 16, 17, 26, 28, 29},
    {1, 4, 9, 10, 12, 13, 20, 29},
    {4, 7, 8, 10, 13, 16, 20},
    {4, 7, 8, 9, 13, 16, 20},
    {7, 13, 16, 17, 21, 22, 26, 29},
    {2, 14, 18, 19, 22, 23, 30},
    {1, 4, 7, 8, 9, 10, 20},
    {2, 12, 18, 19, 21, 23, 26},
    {1, 5, 6, 24, 25, 27, 30},
    {3, 7, 11, 17, 26, 28, 29},
    {3, 7, 11, 16, 21, 26, 28},
    {1, 2, 12, 14, 19, 22, 23, 26},
    {2, 12, 14, 18, 22, 23, 26},
    {1, 4, 8, 9, 10, 13, 29},
    {1, 7, 11, 17, 22, 26, 29},
    {1, 5, 6, 21, 27, 29, 30},
    {2, 14, 17, 18, 19, 26, 28},
    {1, 5, 6, 15, 25, 27, 30},
    {3, 5, 6, 15, 22, 24, 27, 30},
    {7, 11, 16, 17, 21, 22, 29},
    {1, 5, 6, 22, 24, 25, 30},
    {3, 7, 11, 16, 17, 23, 26},
    {1, 6, 7, 11, 21, 22, 26},
    {1, 2, 5, 6, 22, 25, 27}
];
